 # 16 angstroem -12011.377480517
 lattice_vector   4.4683093027292786        0.0000000000000000        0.0000000000000000     
 lattice_vector   3.9056351800048003E-002   2.6985493993519101        0.0000000000000000     
 lattice_vector  -1.1524818764314092E-002  -1.0676870102820512E-002   2.8669283964225900     
 atom   3.3325486590921094        2.6092348265460381        2.0083570312330119      C 
 atom   3.7089564918345173        2.2248186609142335        1.6534672311302658E-002 H 
 atom   1.7951585847905240        1.1183901273229755        1.9957489007239269      H 
 atom   1.1004930390324725        6.0154906094776341E-002   1.8610575336017181      H 
 atom  0.52940119788796625        2.1182426832107328       0.55386516222720228      H 
 atom   1.7790450865698832        1.1223313094046181       0.54181969762925919      S 
 atom   3.9545442255977203        2.3250871404880904        1.2451040163022566      H 
 atom   3.2478156865992722        1.1153264937049368       0.63785094808176845      H 
 atom  0.20694675475834620        1.0900526605957737        2.3556619899873454      H 
 atom   2.3706924508826508        2.2818644550559370        1.8686174540584692      H 
 atom  0.36000978067482731       0.21921143502252899       0.47999447127357292      H 
 atom  0.78576339778461990        2.1467710265937074        2.0829643503909643      H 
 atom   2.1841904488308419        2.4849432738464783       0.47006982695054622      H 
 atom  0.24602912502461660        1.1282647712298444        1.5967486552555241      H 
 atom   3.2928987571412041       0.93637137309871643        2.0535480087089568      H 
 atom   4.1050275371192440        1.0985482734751129       0.57734915164764755      H 
