 # 16 angstroem -12011.3843673467
 lattice_vector   4.4694292102404578        0.0000000000000000        0.0000000000000000     
 lattice_vector  -6.1648831106876642E-003   2.8704236555106979        0.0000000000000000     
 lattice_vector   3.5222766232774545E-002  -6.2566635344527928E-003   2.6937884118681978     
 atom   4.3860539240544574        2.6841625893557373        1.2547899663319773      C 
 atom  0.72085247355162740        1.2463302514247041        2.4419681663487021      H 
 atom   1.2958266507979948       0.16933065333743738        2.4178049528720229      H 
 atom  0.51821523203659758        1.9085864456196839       0.96246461256275595      H 
 atom   3.4318591618501983        2.5837304883494481       0.89198650104010047      H 
 atom   2.8635488199010886        1.2215443422920573        2.4478639007145566      S 
 atom   1.3251180890346754        2.2809102788399755        2.4414494804263605      H 
 atom   1.4776739758516746        1.1866507605654031        1.5510287600538744      H 
 atom   1.8107951859495701        2.7314686343861379       0.77631082541228391      H 
 atom  0.33254313926757967       0.68193677089050375       0.89770973991781799      H 
 atom   2.2165205605444958        2.5897135907211521        1.3750031140157828      H 
 atom   2.8620768195861577        2.6713459579761976        2.4415308061538985      H 
 atom   4.3493444809233184        1.2881794027591391        2.4609645015221937      H 
 atom   3.2549516874544659        1.1771340169595494        1.1190907169481217      H 
 atom   4.3544221668936904        2.7089446771129801        2.2806898007912002      H 
 atom   1.5848100709920807        1.2308552093891119       0.74427378679954415      H 
