 # 22 angstroem -44494.7441754472
 lattice_vector   2.5563690305897073        0.0000000000000000        0.0000000000000000     
 lattice_vector  0.93090393938968830        6.1995331816285102        0.0000000000000000     
 lattice_vector   6.7614869761724566E-002  -1.3135674087989591        3.9387684642370941     
 atom   1.0797114217663777       0.78397904793527584        2.5397188987821808      C 
 atom   1.2001595474853686        4.7770029766357478        1.6321885570549459      S 
 atom   2.1102647375880976        2.9682091876865639        3.2505775395974363      S 
 atom   2.0343358219677525      -0.97886302783859380        3.9344286095861629      S 
 atom   2.9175075295980366        2.5551439750667528       0.92745607742952085      S 
 atom  0.60150649313522686        1.7016011472977488        2.7649774781799614      H 
 atom   1.2944767192158453        4.0557798725922369        3.6179355654988945      H 
 atom   1.1815340462774597        2.7570109089977581        2.1064360453613591      H 
 atom   2.1344027247086710       0.94927150610976496        3.8969489866552793      H 
 atom   1.1704708428065147        3.3955825341668144        6.4544294227612348E-002 H 
 atom   2.0440132395395243        5.6694692219725429       0.84073783118660794      H 
 atom  0.57762231020255750        4.3267960171396655E-002   3.1143666189458492      H 
 atom   2.0675468261498242        3.6102032368121306        1.2874477190555489      H 
 atom   2.8829916489759464        4.5552941279019201       0.50095783519626025      H 
 atom   2.0162297193018950        4.9963478114223303        2.7534392211896033      H 
 atom   2.4559753809782601       0.62660216196747742        1.1812858706247364      H 
 atom   2.0924037543127723       0.88105824834503088        2.7363219998457415      H 
 atom   1.0938308141511490        1.4213391726701945       0.48787919215312175      H 
 atom   2.0864632974164112      -0.40267567215211791        2.0424718015547012      H 
 atom   2.9441122297119096        3.9478217822371531        2.4467291012346943      H 
 atom   2.1056855119425397        1.7678315691110547        1.6453357111604547      H 
 atom  0.96188848158945484       0.54804223975185695        1.5385394519638114      H 
