 # 27 angstroem -44553.335938359
 lattice_vector   5.0797235400905718        0.0000000000000000        0.0000000000000000     
 lattice_vector   1.7259464361542951        5.1366809448149775        0.0000000000000000     
 lattice_vector  0.80003881148810974      -0.25664459243992421        2.7217797567590636     
 atom   2.6234573520992317        1.2806201503564854        7.6741350086742807E-002 C 
 atom   1.7753166967059000        3.4685217745818808       0.45357794830677711      S 
 atom   3.0177508302101721        1.2074101700956095        1.0341964461460249      H 
 atom   7.1939085670524650        4.6443841729404305        1.8937851655401965      H 
 atom   1.4824646897497857        1.8733594854542792        1.8807080273859589      H 
 atom   3.6342500903747208        4.5879125730964496        1.4990832639288583      S 
 atom   3.3981975513684302        4.8162468598543269       0.10219828488956131      H 
 atom   2.2191030251882129        1.9210251873934339        1.7073067878030939      H 
 atom   6.5725716754035961        4.8954355162630447        2.2699613244682868      H 
 atom   3.2408516136257037        2.8085658928402748        1.4491587624553282      H 
 atom   4.8801554783206802        3.3050494411531366        1.0093634031560439      H 
 atom   3.7078398832326802       0.17419961867080239        2.2937068327234762      H 
 atom   4.0181243782538738       0.28003925236722038       0.98707631538019291      H 
 atom  0.41274349715535552       -5.7270184509366183E-003  0.47900916885662903      H 
 atom   4.9267418874229474        4.8404393922905387        1.1011653116145077      H 
 atom   5.3067550493418327        2.9545677740362404        2.3356065113598241      S 
 atom   5.2679291062499694        1.0035167632568023        2.1686847869238579      H 
 atom   5.7485391619871677        4.1958065512137255        2.3601321968044493      H 
 atom   3.1647985870268047        3.3159865744076114        4.1629804718529444E-002 H 
 atom   1.0143996021713200        2.3193039226740670       0.58837776762931904      H 
 atom   5.0237887676819648        1.2570556749518524       0.77486402912735064      S 
 atom   3.7804008455146190        2.3653721897074411        1.1231227992138881      H 
 atom   1.9388789440928513        3.3250747361355004        1.8853952713287292      H 
 atom   3.8284538489715318        1.8269161143486174        2.2931751404071181      H 
 atom   1.5944329123659222        1.2347685758540725       0.15610875501441210      H 
 atom   5.8804380303545809        4.4003800497326440       0.83797505628428026      H 
 atom   1.5959619221928596       0.72607692631353349        1.6904612425530254      H 
