 # 25 angstroem -22921.8419993895
 lattice_vector   5.1589359687515204        0.0000000000000000        0.0000000000000000     
 lattice_vector -0.77904941139820927        4.0729820921661943        0.0000000000000000     
 lattice_vector -0.69156632440258048      -0.10022135909255082        2.5948147761775884     
 atom   2.4890033710415773       0.98675989924905427       0.28385661766090126      C 
 atom -0.59897331224416817        3.5560356747486996       0.38212408685639176      H 
 atom  0.28984979464723892        3.6445520865489662        1.9120879154461401      H 
 atom  0.71382984345213651        3.7022604984175849       0.23488215945069013      H 
 atom -0.30050845642279161       0.96319363328781515        2.1997626119743408      H 
 atom   3.7448173596982737        2.3313719641700663        1.9212592384538529      S 
 atom   2.3851425888832161        2.3267231334754159        1.5942153411557995      H 
 atom   2.1394638674418185       0.81342009144641236        1.2419616742294561      H 
 atom   1.0734880580303781        2.7086291663755131        1.1903261464463422      S 
 atom  0.98991071498039751        1.1021938451446045        2.2825736101199072      H 
 atom   2.3537203857050568        3.0372246157995479       0.18854308869552866      H 
 atom   4.5045868736491226        2.0097373283112718       0.72764060853743928      H 
 atom   3.4929205610256795        1.0303265651743136        1.8456662730778941      H 
 atom   4.1480066812923848       0.30569404658525878       0.62395317943355422      H 
 atom   2.8991850648898074        3.9718156752712908        1.8723100360089375      H 
 atom  0.63949601189929439        1.1706733118913333        1.0036742334203121      H 
 atom -0.84319475793188436        3.5741542103799380        1.1862282812235279      H 
 atom   4.5909525985434154       0.88436992560704852       0.71586910382248636      H 
 atom -0.19027944799675653       0.20447545415308904        2.2054111186991814      H 
 atom   9.8569926631751292E-002   2.0650456211253521        2.3085850797117971      H 
 atom   2.3441582706964965        9.1222961558672433E-002   2.5224611901435106      H 
 atom   2.2430521598362358        3.8206595745876979        1.4902622727410875      H 
 atom   3.1259483198642943        3.1701686661434896       0.41069159771027469      H 
 atom  0.76943418217691406       0.41527861382517889        1.0820388644656511      H 
 atom   3.0792475761182962        1.8279800725948951       0.28647187729747992      H 
