 # 50 angstroem -120456.761119816
 lattice_vector   6.3817111997230400        0.0000000000000000        0.0000000000000000     
 lattice_vector  0.70457511883956192        5.0258460320749618        0.0000000000000000     
 lattice_vector  0.66247910018878176       -1.8299803810444721        4.6774211884392090     
 atom   2.2914891960986625        3.9525664887660517E-002  0.96606949557857225      H 
 atom   2.5156794366933561       0.37248305104505847        2.1365020720197636      H 
 atom   2.8031079943069726        1.2285971819928665        2.2151811952073528      H 
 atom   3.3485193426518913        2.4496293914341880        4.5196181104488291      H 
 atom   4.5874195888229146       -9.7648821040403344E-002  0.46139931882957436      H 
 atom   1.2855374539170830      -0.70409308414036287        1.8166894930784780      H 
 atom   6.6768849247271183       0.32635762060409440        1.4391467149665134      H 
 atom   5.0391413859932364        1.4250340771558785        2.9804652698995264      H 
 atom  0.70395604495489505        2.8744755263026942        1.4181069812528098      H 
 atom   3.6819544025729374        3.3054337825522113       0.23738636885140579      H 
 atom   2.6421427609818871      -0.89043478798595666        3.3833368686862295      H 
 atom   2.9948102789976883       -6.5032517879996254E-002   4.5391310937694636      H 
 atom   5.0703522044187075        3.0986825694935911        1.8278176817212397      H 
 atom   3.0859667055442910        3.4283407568453779        2.1466851471979980      H 
 atom   5.9775025526217513       0.38946770948979992        3.3841785606717636      H 
 atom   1.9972027148237479       0.91771974722251326        4.1324902170016538      H 
 atom   3.3457404344769524       0.76780672841444009       0.25180579893777238      H 
 atom   1.5958937476336181       -1.6119296761376884        4.1858339617336631      H 
 atom   1.0151014577708464        1.9113503348623890        3.7640064452025488      H 
 atom   6.2893071743128974        2.8253757472033003        3.2059722256259335      H 
 atom  0.78879555690482905        4.4558068158202335       0.38796699279793395      H 
 atom   3.6743365176187792      -0.14278012634536386        2.6030263185024265      H 
 atom   7.3391014134829460        3.6274058450426589        2.6080663959404333      H 
 atom   5.2934351942512636      -0.57064237964959574        4.1333538518141610      H 
 atom   4.7671105854696005        2.3001642857201583       0.58358838277761937      H 
 atom   1.6133339813403631        1.8070056969206993        1.8099557559709365      H 
 atom   5.7735564901327265        1.0727004034492735       0.69741088735082868      H 
 atom   4.6800269137545838       -1.1298905036340172        3.0043610454387122      H 
 atom   2.7220395366843406        2.5293085175394237        1.0524577404401720      H 
 atom  0.69890166459527037        1.0695705892891891        2.6286444366830191      H 
 atom   4.7001903455985472       0.58914469593085783        1.7953315528635576      H 
 atom   6.6739915647324590        2.0492499773415722       0.29992424143758573      H 
 atom   4.0199722592126292        2.3912937170044075        2.5833272278773638      H 
 atom   3.0518880824229107        1.5856373416138605        3.4306437392927154      H 
 atom   5.3885828282277410        2.2204303414286981        4.1504776555551510      H 
 atom   1.5660954350274359        4.1913367153465851E-002   3.0567998892957062      S 
 atom   4.0855056328880188        4.0856051116285910        1.3864264795871006      S 
 atom   3.7802715349213325        1.6085197510041744        1.3519277232006284      S 
 atom   1.7035316105320826        3.5255670176875267       0.63609966176054344      S 
 atom   2.0440261163179088        2.6342483844760505        2.9651142860456274      S 
 atom   6.0359070266485624        2.0684672583708417        2.1625089691738713      S 
 atom   5.6736783414182916      -0.40074356380248954        2.2098967662022404      S 
 atom   1.3271697698538252        1.0408840147845229       0.64527480091693512      S 
 atom   4.3763780094615630        3.1727884739588146        3.7643189166106747      S 
 atom   4.0379749574992179       0.63037203517523555        3.7501620401862881      S 
 atom   6.3869686961738781        1.2246962300703732        4.5329801474554188      S 
 atom   5.9052096495497688       -1.2673370570819920        4.6293484460678398      C 
 atom   6.0526942728824116        3.8464888979932841        1.0141912754107518      H 
 atom   6.9919165708546123      -0.55770295668931669        3.7882733895075242      H 
 atom   7.2127431287022183        3.1837176941246903        4.0046999200511477      H 
