 # 49 angstroem -120443.714303383
 lattice_vector   6.3501361577242967        0.0000000000000000        0.0000000000000000     
 lattice_vector  0.70132136387689381        5.0008708573117442        0.0000000000000000     
 lattice_vector  0.67654256392804857       -1.8082037858806330        4.6677783726224629     
 atom   6.0740221088201078        3.6569271041133553       0.74820526195470827      H 
 atom   1.0600521530071614       -5.2231547334542668E-003   4.6577062174972070      H 
 atom   3.0530752932640186        1.4439578948137812        3.1357090128833338      H 
 atom  0.67065651180259045        2.6199800796793502        1.1412222861274284      H 
 atom   4.9008501821855139        4.2194173281172720       0.42795902089659843      H 
 atom   4.0424732860919939        2.1444586470066072        2.3333806672963608      H 
 atom   3.7228085369480279        3.0075044702614608        2.5349165879720796E-002 H 
 atom   7.5316369948611355        2.8041736749594453        4.5938663050520612      H 
 atom   5.0062400719039637        2.8413768880123933        1.4962526306224562      H 
 atom   3.7048395515526420      -0.37029186059570934        2.3835502493257748      H 
 atom  0.64901187274746253       0.87735274441481670        2.2254053115597303      H 
 atom   4.9934036345575779      -0.46748245127314597        3.8715639482000093      H 
 atom   3.3414627850511263       0.49229233635291725        7.4070481013771439E-003 H 
 atom   1.6544021490301086        1.6318536383287219        1.5136852372412295      H 
 atom   2.6826895831430724       -1.0668401813025730        3.1343830323661743      H 
 atom  0.99762606560238309        3.3838007144663145        2.3617486435339989      H 
 atom   5.6905293733259876        1.1878391274298583       0.88363789761166744      H 
 atom  0.93923116254665739      -0.81152935173514451        3.2419979833807622      H 
 atom   3.0657085165745546      -0.28937311504037244        4.3218271708906837      H 
 atom   2.8662333239957567        3.0586664267794377        2.0911799519361001      H 
 atom   5.4030699741715784        2.0108328191866769        3.8432986695984770      H 
 atom   6.0550889580332905       0.19537424216192822        3.0799409122979289      H 
 atom   4.4510382480919937        1.7165594989781114       0.55601411484461438      H 
 atom   2.0280759640435710        4.0998750489097855        1.5607005347299496      H 
 atom   2.3241152358568580      -0.18699970054374901       0.77284941180432254      H 
 atom   6.3983681990471206        3.0007494466547202        3.3731855235118089      H 
 atom   5.0164989093041665        1.1328857707797291        2.7419545316227580      H 
 atom   3.4160094042346141        2.2100260813012427        4.2833275041570245      H 
 atom   2.1097819125898747       0.65328740692668064        3.9102689786726867      H 
 atom   2.6695546375511481        2.3924637932058719       0.78518824478493443      H 
 atom   5.4083496153382633        3.6351864818357291        2.7139409647699928      H 
 atom   4.9858582883473419        2.4106985483964665       0.18709996842946267      H 
 atom  0.30328999296076797        9.8877219951984383E-002   1.1170833500350013      H 
 atom   2.3683680266402862        3.2125846641319833        3.8957193684451665      H 
 atom   4.6457660377551937       0.28095699170424876       0.29762099708159412      H 
 atom   4.6829280327536944       0.32928723516292452        1.6016551183019179      H 
 atom   1.7759135430385498        4.7989815653682539E-003   2.6513755120273665      S 
 atom   3.9689775944223151        3.7992419372528179        1.2479873406110746      S 
 atom   3.4986625632694981        1.2334981631497282        1.3133903712762931      S 
 atom   1.6845715822070810        3.3455537150593035       0.38913632727950975      S 
 atom   1.9284516795362867        2.3396813943454697        2.7982560392105449      S 
 atom   6.0295998758015896        1.9165760327765622        1.9355057293565985      S 
 atom   5.6874830894780279      -0.62111090614039333        1.9294491209278188      S 
 atom   1.3277227908085927       0.81308154493226736       0.36807113803651148      S 
 atom   4.3771120593817416        2.9400004141801852        3.5036299525295327      S 
 atom   4.0647132854448706       0.42512071926057443        3.5411570949330953      S 
 atom   6.5909625716618505        1.1538191781306248        4.0879810168392199      S 
 atom   6.0670805282284981       -1.5597243956263012        4.2444804042061479      C 
 atom   6.4275157967502610      -0.59900243421153310        4.0737415194737059      H 
