 # 47 angstroem -120420.02219049
 lattice_vector   6.3030129912770310        0.0000000000000000        0.0000000000000000     
 lattice_vector  0.67443301450558024        4.9678614333646056        0.0000000000000000     
 lattice_vector  0.65119985084295595       -1.7679405744868206        4.6377587729062393     
 atom   5.5383264076153846        3.2012846747682140        4.1986613298051054      H 
 atom   3.9572189948044967        1.3948423087475055        3.9086887724228196      H 
 atom   6.3632703272215885      -0.71136179758208995        3.0626099094064450      H 
 atom   5.6176671438084345       0.31932539464670573        2.3860989973689155      H 
 atom   1.9187228463461889        3.3857266726843656        3.1442509105612539      H 
 atom   3.6021868524047207        2.2908953358835822        1.6146787513784260      H 
 atom   6.0411011541745570        2.9883431563419220        2.6020736372206890      H 
 atom   6.6136509921753959        2.7336433791321095       0.42677033427639544      H 
 atom   2.2686001185396938        2.5204309897485437        1.0857667829481638E-002 H 
 atom   1.6358940127213810        4.2487313984635575       0.81420723531884931      H 
 atom   4.7988369634653187      -0.54752173064902632        3.2231661573583041      H 
 atom   2.5337802561198188       -1.2037883428972761E-002   3.4798693280735988      H 
 atom   4.5945141632838924        1.3202431069513747        1.9599014326149560      H 
 atom   3.2960325488873043      -0.18297186608724084        1.5829221855382591      H 
 atom   3.6237914726706766       -1.0699901720207265        3.8987367439225071      H 
 atom   2.9897955561313858        4.0595041653995843        2.3413824147323798      H 
 atom   4.3197593705878345       0.52492674954075935       0.78715028090474326      H 
 atom   2.6128265755411788        4.9436683028136672        5.8008801013848116E-002 H 
 atom   4.9844075187433257        3.7836036031739004        1.9734237928816316      H 
 atom   4.5878811525570944        2.9612110783811239       0.79455718035699419      H 
 atom   2.6631709788019062        3.3198617343751202        1.1467689149294877      H 
 atom   5.3260254374420235        1.2878628228358360       0.10573979831913177      H 
 atom   7.0526178262165589        2.8765228076008560        3.8494453688406605      H 
 atom   2.9885070914853662        2.3804120205598163        3.5134102316177889      H 
 atom   6.9546487322583088        3.5426033168391573        1.6441879358636540      H 
 atom   2.2668137486538811       0.75118696069603763        1.2434025679758467      H 
 atom   4.9904369172897320        2.1578712891101599        3.1593784262305338      H 
 atom   6.9843402092683453       0.20915466718420159        3.8583968219542450      H 
 atom   5.5975518799970390        3.7550230237752760        2.3129653636855568E-002 H 
 atom   6.9889849674321827        1.8158211786401686        2.7573172627151177      H 
 atom   2.5833508077149476        1.4720337492593722        2.4517561600123061      H 
 atom   4.9820610910771617       0.36178869183239287        4.2538258332182508      H 
 atom   1.3007122575702563        1.7731171199340325       0.81560058670554214      H 
 atom   6.2399416470180666       0.24914526453753830       0.36360087195225627      H 
 atom   6.6079140824191605        1.0441487599443473        1.5399424251277367      H 
 atom   1.2675096832039503        7.4402309216600557E-002   2.0190097089954162      S 
 atom   3.6756576607665035        4.0057448667383868       0.40466340930178057      S 
 atom   3.2621798389718855        1.4959106357962353       0.42844920123632863      S 
 atom   1.9112648445275988        1.6990691170203716        4.2561180512495209      S 
 atom   1.6583347603234961        2.5558468678297834        1.9670238961413968      S 
 atom   5.6246008418354450        2.0394646193124966        1.2131420814519511      S 
 atom   5.9625939898164537        4.5044951688858665        1.2010545861737012      S 
 atom   1.6338541732261289      -0.80944566281885511        4.2749695874244305      S 
 atom   3.9536077848872377        3.0933722529106289        2.7470467071316813      S 
 atom   3.6685469498919474       0.57582714007151659        2.7665555666315380      S 
 atom   5.9470173670321849        1.1522157609362036        3.5105054511507277      S 
 atom   6.2657334261928979        3.5894971523255657        3.4640887570399408      C 
