 # 51 angstroem -120466.173545403
 lattice_vector   6.3777953520132984        0.0000000000000000        0.0000000000000000     
 lattice_vector  0.60489741470079250        5.0665433917752161        0.0000000000000000     
 lattice_vector  0.74985116990417511       -1.8617084375025037        4.6860404042993622     
 atom   3.3633474399171450        4.6252178701559794       0.71054321510021989      H 
 atom   3.5376409317116448        2.1236509066604352        4.2072014093644983      H 
 atom   4.1566364469764601        1.9876255995871894        2.3038673740649189      H 
 atom   4.2542319103927371       -1.4058988827201757        4.5937390788639734      H 
 atom   5.5788194840984016        3.5650429849641161        2.7224341321999224      H 
 atom   3.2467908380802859        3.0222452846801304        1.8416178358749142      H 
 atom  0.47298075407753187      -0.12479789452525034        1.0428411545939511      H 
 atom   2.3847917391123348        3.1366578383683703        3.8419810079063477      H 
 atom   3.8713431174315849      -0.46032741578556480        2.2637742814257926      H 
 atom   5.4099530504787019      -0.84753270671927428        3.8885532854506359      H 
 atom   3.2348277668863665        1.2220199783135932        3.0933901861806867      H 
 atom   3.2491100878667969      -0.38401434963762560        4.2114869749951787      H 
 atom   2.2492446728349429       0.81939100083903749        4.1501599145314909      H 
 atom   1.1597222981595614        3.3649958223450986        2.1867552570773099      H 
 atom   2.3668318817045888       0.22480063463002187        3.4424592187606815      H 
 atom   2.8780918638041126       0.49723257597604054        1.8298569875167294      H 
 atom  0.89097277245291540        2.5554184952131394        1.0506292336310699      H 
 atom   2.8738057577089120        2.1339076341307215       0.72534571542340676      H 
 atom   5.2413363611935715        1.9764146874237674        4.0118261647991451      H 
 atom   3.4522434010674079        3.8335623953037472        3.0116047909933017      H 
 atom   5.3039174462596446        1.0416716647644733        2.6761563363465215      H 
 atom   1.3214813224376150        1.4427983133870532        3.4865486953345810      H 
 atom   6.2570990368435062        6.6010184846511622E-003   3.0091265766751287      H 
 atom   1.0383170831347455      -0.82135137031960348        3.3883643077374308      H 
 atom   6.6430609781748409       0.92363265634905301        1.3909303474846697      H 
 atom   4.5742817303260255        1.0610030742964027        4.6217672589263223      H 
 atom   7.1087719501918389        3.3145732665084711        3.2570434225113818      H 
 atom   1.0665727936307980        4.1412030026718725        3.3719744088308821E-002 H 
 atom   6.2135022440213685        3.5454906419711487       0.63725856575506401      H 
 atom   6.0781673562565963        1.7706016171468553        3.6251367332217042      H 
 atom   6.9531953268760596        2.1493086608731917        2.6848158697630717      H 
 atom   4.9620004878630644       0.25555675200544675        1.4472422889997179      H 
 atom  0.98334700386942420       0.67358042027747322        2.3931486126421619      H 
 atom   5.2923501050645108        4.6603422014042710       0.10703779702966032      H 
 atom   7.4029829307732138        2.4812047520701692        4.3162891143525588      H 
 atom   4.8309632213333700        1.9474385556009124       0.26830851556198637      H 
 atom   1.8266177396359697      -0.38508928944251153        2.3934571015643784      S 
 atom   4.3185106815164236        3.6955788066924469        1.1064412337090086      S 
 atom   3.8997485641302934        1.2117823389501545        1.1001445675460846      S 
 atom   1.9941304557154180        3.2818949113017175       0.54344838882148550      S 
 atom   2.2473514062091047        2.2506915128520566        2.6751746413836810      S 
 atom   5.9698730681521912        1.9903800425529636        1.8039002427009112      S 
 atom   6.4742776307941359        4.3079323631398481        1.8535725404621888      S 
 atom   1.5905232291696123       0.67688968592063148       0.29526053525839840      S 
 atom   4.4717172199851198        2.9068103217510060        3.4028446715220340      S 
 atom   4.3028809476793661       0.28514707951179186        3.4288568657431395      S 
 atom   6.6825292005752770       0.73284045585691548        4.2542159200355281      S 
 atom   6.1398578628935070       -1.6386405504017478        4.2560101773965719      C 
 atom   1.3808825073258679      -0.22355142618959045        4.6275249271783645      H 
 atom   5.9675080816127206       0.77493287233827679       0.23369393836923452      H 
 atom   1.7656814808477623        1.5027917572767813        1.5257671613111037      H 
