 # 51 angstroem -120468.993087058
 lattice_vector   6.3887860762734041        0.0000000000000000        0.0000000000000000     
 lattice_vector  0.71969777268945090        5.0465322346407602        0.0000000000000000     
 lattice_vector  0.66179123631135572       -1.8355366007884955        4.6933319059165273     
 atom   5.9378667930064370       0.26598891113416612        2.6858136781474427      H 
 atom   2.8714189510590251      -0.20871738955575483        3.8628055118412048      H 
 atom   4.2294939854569522        1.3365221280283153        4.2580141635094613      H 
 atom   3.8534299657644513        2.2027872814954965        1.9457628409433794      H 
 atom   5.9370312007088915        2.0066437018055705        1.5453241634198414      H 
 atom   3.8616432421639346       0.57021020300590097        3.0628825982388288      H 
 atom  0.56650689694942868        2.7319531922240921       0.73085031333989825      H 
 atom   6.6723837787762923       0.15937028227538225       0.98219197536689840      H 
 atom   5.2857526054685637        3.7716580152125734        2.3158720255865575      H 
 atom   5.7968462246321977       -1.3446409199694191        3.7889493263832756      H 
 atom   5.5830922524180364        2.8828566423331390        4.6634732972839128      H 
 atom   3.5907559775957889      -0.24993238135210422        1.8689622311558227      H 
 atom   3.8910671189741017       -1.1681359216809122        4.2482787673486566      H 
 atom  0.52822052156606902      -0.74781007083420215        3.1256384105439450      H 
 atom   4.1916565721748027        3.1001895921410143        3.0786178770616033      H 
 atom   3.9219336616048039        3.9903501944802073       0.72212054041499696      H 
 atom   1.8852982478392843       0.85402286801706484        3.5154396030545194      H 
 atom   5.5649332509802276        1.2478268568598316       0.37021132797312239      H 
 atom   1.9895863680986416        1.8529558626535367        4.6606474931313997      H 
 atom   2.9251618180931107        3.2638481469275917        1.5224969241649167      H 
 atom   1.5375081979118641        2.7389605574123892        3.2984119433401040      H 
 atom   4.9247522665637256        1.2416291597410749        2.3026508516786874      H 
 atom   6.1928562722483527        1.0488601164379414        3.8742484327149866      H 
 atom   5.8807818320111567        3.5901907822993930       0.61536090301729940      H 
 atom   2.5473649696468059       0.72537266403527578        1.5241125508449824      H 
 atom   5.2231069473879286       0.34486403907231877        4.6408884914571216      H 
 atom   1.9169618572705303        4.2414250285259953        1.1213392502148274      H 
 atom -0.13346622534132735       0.28437023776889453       -1.3437322538152486E-002 H 
 atom   5.5406785270609360      -0.49479962094198643        1.4748086045477897      H 
 atom   6.2987457545292695        2.7912862204410582        2.7292207583289847      H 
 atom   2.4088784777617609        3.5102114820216026        3.4589461244889921      H 
 atom   1.5038646902353070        1.6910531253241561        1.1467853325392174      H 
 atom   1.4785058971411014        5.3813370849472089E-002   2.3269959493555334      H 
 atom  0.81202550743900359        1.7136453696682457        3.0461129872510591      H 
 atom   1.9366640119021541        2.5261545040255289        2.1778643890864151      H 
 atom   1.8464823899693292      -0.90333306260714286        4.6707122791320694      H 
 atom   2.5521226031403565      -0.95127693979634609        2.6580798802859298      S 
 atom   4.8580894682693820        2.9630626802466318        1.1535584986718881      S 
 atom   4.5622208924752679       0.47920008372018752        1.1101217379648596      S 
 atom   2.5337830847439893        2.4771794616273337       0.33325443793243692      S 
 atom   2.8784949524981420        1.5235777560531463        2.7055022981928212      S 
 atom  0.52637504089523968        1.0367431960927298        1.9389709910307951      S 
 atom  0.88584699754958063        3.5415583632487819        1.9160277007687254      S 
 atom   2.1840885025420107       -6.6435873687646613E-002  0.34096426896598520      S 
 atom   5.2011474015467805        2.0748372767775698        3.4652077813330315      S 
 atom   4.8722353866121555      -0.45137748805483602        3.4764442990892528      S 
 atom   7.2512748333177415       0.12118682076004009        4.2625043735212502      S 
 atom   1.2823358513473881        2.5349206990572184        4.2858755261396020      C 
 atom   6.6768725623889420        2.2322560743046918        4.3031550232549440      H 
 atom   3.1746344046073145        2.3404855754697462        3.8687145826557874      H 
 atom   3.4874901993142022        1.4923605627705432       0.71706112813527234      H 
