 # 48 angstroem -120432.597212374
 lattice_vector   6.3482279034505220        0.0000000000000000        0.0000000000000000     
 lattice_vector  0.66930512335891745        4.9882708502372823        0.0000000000000000     
 lattice_vector  0.66704409759965022       -1.7917774691153343        4.6524695111793708     
 atom   6.9706726585818863      -0.51749246949970562        3.8481794420250388      H 
 atom   5.5915761765316079        1.0183139607749814       0.89180410277558642      H 
 atom   2.9266435152786232        1.5280672420909629        3.5392803974658342      H 
 atom   1.1891920994414997      -0.74593494070127631        1.9710906387887988      H 
 atom   5.1504665602391277      -0.60370686441859500        4.3013535068531272      H 
 atom   3.8824691789020740        2.2884329932272829        2.7308313031372959      H 
 atom   7.1915539999441132        3.5672663602857213        2.7605635621748950      H 
 atom   1.5099688883007762       -1.6177582291904777        4.3003267199949216      H 
 atom   2.6359536065274662       0.72874418357857462        2.3500774158537241      H 
 atom   4.9124381184226547        1.3493264922675490        3.1408588037293841      H 
 atom   2.1815090705429276       -1.8789594373132736E-002   1.1861171584143786      H 
 atom   3.2335093295443063       0.68579690441262475       0.40823497544536302      H 
 atom   2.1913751269403972        1.6766212726137999        4.1299058557390571E-002 H 
 atom   6.9199777505706006        2.7853499924173741        1.5755259533866073      H 
 atom   2.9267543834586514        3.3171805844229754        2.3096213594255119      H 
 atom   4.4776928294035621      -0.18999569505028704       0.61079598894268861      H 
 atom   7.1065266332008079        3.2323407104830322        4.1262027139376682      H 
 atom   4.5551739768341912        2.1841437255477452       0.80282910105305283      H 
 atom   3.5466086413289339        3.1937732582780201       0.41139250460242721      H 
 atom   1.5278473501912786        1.7388448792436710        1.9567026853525480      H 
 atom   5.2260320731191259        2.1571138229757745        4.3188115357536319      H 
 atom   6.9219051798802740        1.0234384537071504        2.7836286831699550      H 
 atom   2.5447567229514960        4.1704875600403595        2.1423131564516203E-002 H 
 atom   1.8580027825871532       0.87022321390433610        4.2792808494326717      H 
 atom   2.5837134889123763      -0.88053020875760113        3.4834204234745876      H 
 atom   6.1316814855775137        2.7442333344360694        3.3832711638576156      H 
 atom   5.8774704210184368       0.31724916083739318        3.5380076209246543      H 
 atom   5.8790047556510432        3.7570062120956362        1.1814403033208234      H 
 atom   7.1902340736833539        1.8533131990459775        3.9286274786766682      H 
 atom   4.9179306193453574        3.0009112966997900        1.9993610147795100      H 
 atom   4.5170224831259453       -1.1272889237715853        3.1524003317982339      H 
 atom   4.5091527113783627       0.47776899048314930        1.9828386221779948      H 
 atom   6.5190183570140192       0.25067832398059864        1.5887614599250155      H 
 atom   6.9792461873899940        4.3451521371907011       0.52048877961550810      H 
 atom   6.5187358412701917        1.9426593858394179       0.42496842041004362      H 
 atom   2.5883089172566893        2.4471743625612103        1.1990595830810296      H 
 atom   1.5693735630796435        5.8404667537747396E-002   3.1112955582978663      S 
 atom   3.9172797208167225        4.0176307777961284        1.5941744092713739      S 
 atom   3.5726018138836886        1.4894164584178442        1.5773128387891902      S 
 atom   1.5625674297688037        3.4390619935845907       0.79264798248874613      S 
 atom   1.9144124370066176        2.5480629879186338        3.1128226118621893      S 
 atom   5.8812789436881570        2.0016313874122167        2.3187368882382082      S 
 atom   5.5428266513668190      -0.45891114394644955        2.3767615748760216      S 
 atom   1.2097923068484326       0.95953833758682516       0.79698374951856343      S 
 atom   4.2244238243679861        3.1038810167560911        3.9118453985156765      S 
 atom   3.9022696031202986       0.56754384698221116        3.8874437249429814      S 
 atom   5.5469766036330901        2.9388614449392421        4.2186671795461164E-002 S 
 atom   5.1066233811435247       0.49381034524191142       0.12598564590875660      C 
