 # 50 angstroem -120456.9344385
 lattice_vector   6.3808937933134340        0.0000000000000000        0.0000000000000000     
 lattice_vector  0.68741333232538127        5.0187063196207564        0.0000000000000000     
 lattice_vector  0.68923958984955536       -1.8145327500795208        4.6744441508042414     
 atom   2.3161324440798325      -0.32872683755729598        1.0183474410362008      H 
 atom   2.6675349396389740       0.53187329045593112        2.1624737746972977      H 
 atom   3.9653082919820322        2.0108287385026937        2.5766118578570634      H 
 atom   3.3140081123980134        2.1053345366157186        4.5264001070699011      H 
 atom   5.2291526734526173        4.5874105403151653       0.59666339055799067      H 
 atom   1.9454048101744235        3.9851182273331669        1.7831868442775933      H 
 atom   6.6343928545432496       -5.3348806822689519E-002   1.3617479113726976      H 
 atom   5.0196770102447372        1.0813970319629662        2.9746822470075065      H 
 atom  0.62820874943413019        2.5163951564849252        1.3985724090661993      H 
 atom   3.6055508663333695        2.9336354350427700       0.23942699299898537      H 
 atom   2.6273861117959414       -1.2245224291993826        3.3629377174983306      H 
 atom   2.9753267317050787      -0.41046455622022870        4.5083859765513159      H 
 atom   5.0129203447197721        2.7081277114004005        1.8125468530824056      H 
 atom   2.3646962890607499        3.0747555688309971        4.1254143383881230      H 
 atom   5.9560235112996356        2.5588904373964043E-002   3.3515675185014402      H 
 atom   1.9422088495321546       0.57686815815306081        4.1224826583065450      H 
 atom   3.3244253127573447       0.41297572688470952       0.22127030115813018      H 
 atom   7.5944799831041205        3.3609479841264651        4.3666232083558922      H 
 atom   7.3541824929772952        1.5933367160236360        3.7312036135438205      H 
 atom   6.3251172311976829        2.5472696115500351        3.0160225528436335      H 
 atom  0.67714124969188494        4.0196628351436825       0.32454410950631812      H 
 atom   3.6154597509206678      -0.51540944409490230        2.5846038719029587      H 
 atom   7.3528552323126739        3.2840065942557239        2.6566823268713446      H 
 atom   5.2795205133455392      -0.88657688434890669        4.1436711575141878      H 
 atom   4.6223537608174583        1.9383433539042783       0.59844112216436718      H 
 atom   1.5733901358689384        1.4856865588611834        1.8118175749274021      H 
 atom   5.5599093500316146       0.79838715889047884       0.87026629822693324      H 
 atom   5.3460772948671424        3.5232357294286274        2.9905493378055463      H 
 atom   2.6449965073758688        2.1674559596358747        1.0427211348599261      H 
 atom   6.9985846338049180       0.74107802145057922        2.6057910861484745      H 
 atom   4.6177840014171077       0.21728994538587693        1.8489566578468766      H 
 atom   6.6464429608397468        1.6296280896205604       0.22686849473539394      H 
 atom   3.0204996048998378        3.0380469317697716        2.1439230295504865      H 
 atom   3.0144963616221658        1.2531154465959087        3.3763250971650205      H 
 atom   5.3162804769398351        1.8368170186054862        4.1409838001855075      H 
 atom   1.6564749359584632      -0.22054835776748014        2.9370281494550849      S 
 atom   4.0141690175108771        3.7263605216110531        1.3876053842692764      S 
 atom   3.6444013513851750        1.2122778760299995        1.3993161307424435      S 
 atom   1.6427198893916208        3.1681250706918589       0.62446722719607450      S 
 atom   1.9825619434221251        2.2826798531699470        2.9646199262334609      S 
 atom   5.9667297910520531        1.6640538959681146        2.0903106372668421      S 
 atom   5.6461580222512664      -0.76372383996945037        2.1909947234488238      S 
 atom   1.3003291222929838       0.68360521366730798       0.64075471056510669      S 
 atom   4.3408915838886841        2.8187340779930268        3.7452330904298181      S 
 atom   4.0017901753246159       0.28814420358210813        3.7473687914341598      S 
 atom   6.3339576902989636       0.82187160788400337        4.5248714705341007      S 
 atom   5.8742042605285105       -1.6092426737466181        4.6262277963113618      C 
 atom   5.9701784406153831        3.4614933748291592       0.98906907572055058      H 
 atom  0.67097199888108239      -0.78291826185156999        3.6163916757871046      H 
 atom   6.4498337306152314        2.5300907478569288        3.9899800521101483      H 
