 # 51 angstroem -120468.193371307
 lattice_vector   6.4140564911755646        0.0000000000000000        0.0000000000000000     
 lattice_vector  0.56224627638263946        5.0667483840052618        0.0000000000000000     
 lattice_vector  0.77489846925566119       -1.8656352516032142        4.6695789411281767     
 atom   6.8647705957529030      -0.12256032394226246        2.9729082129313400      H 
 atom   2.7952145952543868       0.40932317552743513        3.7300872977185402      H 
 atom   3.7711416538817435        1.1726465535059216        2.9635536926068640      H 
 atom   3.7526637149746782        2.9419732169772286        1.7985148143222371      H 
 atom   5.8359342383637385        2.5334463743721307        1.4407887575679537      H 
 atom   3.4415209620988301       0.35756156620641394        1.7954491645688098      H 
 atom   6.9182772000404213      -0.96309066407067589        4.1203862322762603      H 
 atom   6.5250595001521052       0.92793316623965760       0.77221451908753602      H 
 atom   4.5095068223212156      -0.68575098718121619        2.2442656517805579      H 
 atom   5.7193350582708034      -0.74474679413330813        3.6407817602859969      H 
 atom   4.9422793148546083       -1.5247274269960374        4.4528614445777466      H 
 atom   4.2285204377440024        4.6625293344777310       0.63971971687969309      H 
 atom   3.8657039618617612      -0.57876268166743938        4.1325983940541553      H 
 atom   1.5869580568181318       -1.0830945076366862        3.2612468196816184      H 
 atom   4.0212623651042572        3.7269793220081389        2.9746761877171291      H 
 atom   4.1796441834655722        1.9660753976062690        4.1568989894729809      H 
 atom   1.7788620592684115        1.4580305161918483        3.3661973392881395      H 
 atom   5.4585503814885090        1.7831954368220440       0.23750630533724043      H 
 atom   6.7868098994512724        3.3834246892708877       0.63976926867220485      H 
 atom   2.7529175922779907        3.8636602360368983        1.4524048126165658      H 
 atom   7.2191708565751824        2.6649931284222728        3.2076513491035827      H 
 atom   4.7881118381332897        1.8592721263236522        2.2077984053923037      H 
 atom   6.1133444921772417        1.7341690081306211        3.7201139776873378      H 
 atom   5.0700488765674034       0.13776467721922819        1.4394147250342308      H 
 atom   2.4010834434351578        1.3514416766597819        1.4246006082327289      H 
 atom   5.1554677563200570       0.97102656317183866        4.5282300015646797      H 
 atom   1.1239603249349110      -0.20614976139609639        1.0066496826516602      H 
 atom   1.8925942526426036        2.5722293216849152        4.4691162004598919      H 
 atom   5.8094338672536798       0.83857692106860615        2.5269414298974993      H 
 atom   6.1403518460311757        3.4195914537517962        2.6189525879034736      H 
 atom   3.0591498220882971        2.9556644275604769        3.7779138601533124      H 
 atom   1.3784023741200169        2.3352938224246667       0.99923241590749456      H 
 atom   1.4462847625712933       0.56964357945975486        2.1874789312635152      H 
 atom   5.8639873539217211        4.5831865963368204        8.4304195314749822E-002 H 
 atom   1.7483153841517212        3.0882927986998605        2.2474234963974196      H 
 atom   1.7239674226857791      -0.27451669854964911        4.4805185137019450      H 
 atom   2.4881990188964065      -0.36661345409030249        2.5769966135391424      S 
 atom   4.8484301851532638        3.5333134308167953        1.0592608202262168      S 
 atom   4.3683857962776296        1.1944990400440147       0.97574304081059438      S 
 atom   2.3203445816424497        3.1301308795973943       0.23300762794338389      S 
 atom   2.7746356598441699        2.1467958152517226        2.5901715722582197      S 
 atom   6.8433720131209093        1.6319599989105453        1.8582218156621158      S 
 atom   7.1791811839189004        4.0605699604715486        1.8385246236461119      S 
 atom   1.9907671718722582       0.63936223666010317       0.20702770352911315      S 
 atom   5.1027183753260532        2.6901871133730459        3.3514119606989414      S 
 atom   4.8206941024464163       0.19447729254208415        3.3604118158686460      S 
 atom   7.1690753718429647       0.74946033239330645        4.1180492942291700      S 
 atom   7.4353678682696325        3.0670294383327312        4.1559699235122389      C 
 atom   5.9603178381941566       -7.9060387702551554E-003   1.2208915658058921      H 
 atom   3.3100532083344918        4.6595884609130405       0.60931121229037977      H 
 atom   3.2820595337199889        2.1981956589748828       0.60405885479889865      H 
