 # 47 angstroem -120419.533084156
 lattice_vector   6.3207778697414989        0.0000000000000000        0.0000000000000000     
 lattice_vector  0.66295758119853609        4.9774256144110911        0.0000000000000000     
 lattice_vector  0.66756613816102328       -1.7942327125875031        4.6353217684720160     
 atom   7.1936033911619690        2.2547762450019522        2.9456380496072248      H 
 atom   4.2197089442308435        1.7621728621769772        4.0683110260662092      H 
 atom   6.5238674900058484       0.63025889740444141       0.56839861066762731      H 
 atom   6.5639150035892158      -0.35266405395407435        3.0550549189062925      H 
 atom   1.5417647195271686       -1.2345250652831121        3.3039928089481294      H 
 atom   4.8958076083432616        3.4309113186016353       0.96868710458131069      H 
 atom   3.9858595306024669      -0.70903227256208301        4.0571699590633923      H 
 atom   1.9194585052318820        1.2365790961032941        3.3004432247764743      H 
 atom   3.9377860201059391        2.6542925579140122        1.7436877745087132      H 
 atom   2.5254525157675074        2.8990619717960024       0.19022887854005374      H 
 atom   7.2742154260304392        3.1771446630457834        3.9697443513198243      H 
 atom   2.2478870385705894       0.38341409326206655       0.20511566212952856      H 
 atom   4.9288475229887210        1.6461680059352504        2.2137089528407650      H 
 atom   2.6158332646088978      -0.45833636481620438        2.4495482017648347      H 
 atom   5.2240779176188150        2.4916452897357821        3.3266193151934171      H 
 atom   2.8669132755167079        3.6127073834965318        1.3908880247241926      H 
 atom   4.4978225330914299       0.86199093889901734        1.0575207729594867      H 
 atom   2.5660836917181684        1.0481856333065611        1.4506271823952430      H 
 atom   4.9963027216721514       0.22291440647393257        3.1980419771659143      H 
 atom   4.4973984177665525      -0.73805436274732672        2.1142678382258180      H 
 atom   5.2138765842963277       0.77437575522812585        4.4866170955074249      H 
 atom   6.8303290293808905        1.4322542182588209        1.8010564710118075      H 
 atom   2.8787713154728318        1.9756494921603995        2.5176603653915306      H 
 atom   3.2207805392029449        2.7151771523088839        3.7145454293997764      H 
 atom   7.1945763173536719        3.9167549728570945        1.8248312727280518      H 
 atom   1.5803136723952942        2.1182226003836204       0.99385053850108784      H 
 atom   4.8688180211860761       -1.7751703114280832        4.5661094242445763      H 
 atom   7.1977551616847109       0.49438139418281574        4.0926781661374116      H 
 atom   5.9158066979360822        4.1239341872638775       0.20586741982960460      H 
 atom   5.0994743938649316       -1.1704406639570974        3.3299459769886925      H 
 atom   2.9005563927432001       0.24152010904285307        3.7064174446200511      H 
 atom   5.9758901380779879      -0.39651621974483930        4.6227026197653887      H 
 atom  0.55324816142104105        3.1061986414398599       0.65739701576357645      H 
 atom   1.2577825709317279      -0.35071727392869939       0.98534297033369123      H 
 atom   6.1885187076681305        3.0988499831743286        2.3806411284958493      H 
 atom   1.5050456308359690       0.43852483944816772        2.1630754173640363      S 
 atom   3.8961058183546862        4.3885064479577123       0.62644760698732216      S 
 atom   3.5514071775150300        1.8692022502335903       0.60092714673490299      S 
 atom   2.1910180480773183        2.0443348308806879        4.4634009632832381      S 
 atom   1.8918645608406186        2.9391740782220324        2.1615637871334283      S 
 atom   5.8607391457949953        2.3735073043249399        1.3328537875328195      S 
 atom   5.5720198251763042       -6.7790785350124949E-002   1.4237387645609034      S 
 atom   1.8800263166491091      -0.45109122858671941        4.4713970429449157      S 
 atom   4.1770760778124041        3.4734991380885765        2.9278413089809479      S 
 atom   3.8835227275113287       0.93663187839437934        2.8849797934445212      S 
 atom   6.2203222933867606        1.4995111237661183        3.6673754861793229      S 
 atom   6.0287009975866486      -0.95632395273901172        3.7394664071104771      C 
