 # 51 angstroem -120468.786095017
 lattice_vector   6.4138239055876669        0.0000000000000000        0.0000000000000000     
 lattice_vector  0.75813256910091320        5.0377215244982647        0.0000000000000000     
 lattice_vector  0.58157556401208688       -1.8682867437604185        4.6902620241941255     
 atom   6.0467377635239057       0.33281807267939084        2.6016127449919240      H 
 atom   3.0371296004693504      -0.11719517831324520        3.7673889647849976      H 
 atom   4.4251353945287422        1.4238532011252847        4.1491481917867414      H 
 atom   4.0524397994068249        2.3324970669310243        1.8587974898514159      H 
 atom   6.0822371816180691        2.0966273902595671        1.4229407590603196      H 
 atom   4.0325259174460806       0.65955851287871159        3.0100973533517519      H 
 atom   5.9788697814882958        1.6874322731463767       0.24223451144775882      H 
 atom  0.37870178728332421       0.37593003868156843       0.79768725650473893      H 
 atom   5.4683632330490237        3.8666216723954578        2.2343303819486553      H 
 atom   5.9438082499012559       -1.2972389514607348        3.6695845437634222      H 
 atom   5.7333032929310850        2.9065871830368604        4.5604822358450283      H 
 atom   3.6774434326483099      -0.17903966888386152        1.8506799517999293      H 
 atom   4.0366477232664915       -1.0874742798475854        4.1638542008916692      H 
 atom  0.62654189224558221      -0.61891393716540088        2.9796272609754828      H 
 atom   4.3881105773335412        3.1885159141091903        3.0127434623277547      H 
 atom   4.1097258127330001        4.0746667811891983       0.63618065405235047      H 
 atom   2.0543759861357036       0.97320040178029643        3.3168503033654559      H 
 atom   5.6064105592968341       0.85945131514120576       0.19349061344246149      H 
 atom  0.76054288008005977        2.8872320385807346       0.62512868952629941      H 
 atom   3.0779080600906497        3.3715443175695583        1.4388724843177561      H 
 atom  0.96526902829765415       -1.4492990413036604        4.0536546357971313      H 
 atom   5.1179496896640577        1.3487080419372364        2.2039816910002070      H 
 atom   6.4260959173460153        1.2102233245199567        3.7167885699295997      H 
 atom   5.9907293502764025        3.4979618718903858       0.29012048534714269      H 
 atom   2.6879580177801374       0.84624657500641010        1.4163067195792753      H 
 atom   5.3709967314646665       0.39451764085754010        4.5599407456038534      H 
 atom   2.0725241991899517        4.3597076134959334       0.98567050697579561      H 
 atom   2.1824261980639861        1.9637744650008604        4.4706959559952759      H 
 atom   5.6974669473512245      -0.44770842774181618        1.4493406708218706      H 
 atom   6.4797845043323790        2.8804766146761596        2.5768229711077328      H 
 atom   2.5317845935627292        3.4071836208256476        3.2083318081019279      H 
 atom   1.7053660402095059        1.8305545757964854        1.0093196286416195      H 
 atom   1.6597409019354854        9.7285561221776298E-002   2.1498854974595898      H 
 atom   1.0571192946807821        2.1981017746036526        3.2116066707275657      H 
 atom   2.0157474532862940        2.6113568297613186        2.1952008510203500      H 
 atom   1.9935481561252038      -0.81452306997829316        4.5570759240627625      H 
 atom   2.6610845400736083      -0.86601636169021601        2.5934698077521654      S 
 atom   5.0477722584893767        3.0601308270401546        1.0888639416199288      S 
 atom   4.6468159075413684       0.53134245324001239        1.0886008625034558      S 
 atom   2.7406418330704878        2.5918219532646081       0.24552543096477955      S 
 atom   3.0474390297048615        1.6359918667847253        2.5862903721940071      S 
 atom  0.69134537356760473        1.1358541395478179        1.8258989193069737      S 
 atom   1.0713192958294939        3.6227506113441792        1.7997729506608731      S 
 atom   2.3648480878744191        4.4579420567693165E-002  0.23819756389288813      S 
 atom   5.4100118195232181        2.1627674358123374        3.3718790837400143      S 
 atom   5.0349961757604973      -0.35199725820151218        3.3918803423243302      S 
 atom   1.0759454519539826       0.26549341538382981        4.0658918438891911      S 
 atom   1.4133054384958934        2.5933349340441048        4.1157127277629373      C 
 atom   6.4846917544119123        4.4453877298997453       0.13011327333379399      H 
 atom   3.3797531553864144        2.4071325867971858        3.7830460080044599      H 
 atom   3.7058170098885133        1.6050250082060304       0.61924366574278311      H 
