 # 49 angstroem -120445.390157984
 lattice_vector   6.3667749932903615        0.0000000000000000        0.0000000000000000     
 lattice_vector  0.67809625928697914        4.9997941232692984        0.0000000000000000     
 lattice_vector  0.67830393862545801       -1.7954893847811761        4.6655481769558369     
 atom   5.4190647493813850       0.64900204640422510       0.16375497232799446      H 
 atom   2.9262451951888324        3.1916047312110756        3.8663264829334243      H 
 atom   2.6110973621382723       0.67818293924104767        3.8624287692152133      H 
 atom   6.6329342678727770        3.5734851655511894       0.72770342463509641      H 
 atom   1.2376375530556254       0.87448496508936335        2.2728278558766228      H 
 atom   4.6527969825547295        2.1248699789306045        2.3134471355131390      H 
 atom   5.5358501556693751      -0.46707193993930862        3.7623435891751056      H 
 atom   1.5781056060216749        1.6973116542468754        3.4724930140589985      H 
 atom  0.89677546644949058        7.0941554097602944E-002   1.0955513976656281      H 
 atom   3.2245641350474483        2.3568874294520668       0.73012539700468182      H 
 atom   5.3010426620594826       0.31579778725588631        1.5143848247095471      H 
 atom   4.6687335300572359       -1.2889912817968794        4.6224362961970007      H 
 atom   5.9829227679812682        3.6289418506328390        2.6881940462058642      H 
 atom   1.2376804158430128        2.5360634412387495        1.1320031929441230      H 
 atom   3.2845518848222266       -1.0918269080674774        3.0811751721051013      H 
 atom   1.5782727630503899        3.3604232376046284        2.3298581731379779      H 
 atom   5.9830173359683174        1.9349159994003913        3.8515437501308427      H 
 atom   2.6108989473050115        4.0913011936056991        1.5190898048686858      H 
 atom   5.5358593662338613        4.4083177255660262       0.41434958655827203      H 
 atom   3.5828266975107517        3.0865848349149978        1.9464401603980841      H 
 atom   1.6777752841507756        2.6890756696079778        4.6182411745100787      H 
 atom   6.6329395458370159       0.12439179339301429        3.0958466212002347      H 
 atom   5.5913107058377385        1.0869026077931472        2.7031036154174073      H 
 atom   2.2707681306675607        1.5874754037861976        1.5313051525075898      H 
 atom   3.2248670114031990       0.56414296250440288        1.9622807497046282      H 
 atom   3.9632656630207359        2.2023852616558739        4.2549157382087373      H 
 atom   6.3541392641728311        1.1549171309354704       0.89915301423217231      H 
 atom   3.5838982314081553        1.4395361133067057        3.0815912621621244      H 
 atom   1.5752248644082822       -6.9565244220136768E-002   4.6244659032223545      H 
 atom   3.6242492960863060      -0.30333453730211302        4.2578702421269163      H 
 atom   5.5907533945884751        2.8611917938945495        1.4847969470161735      H 
 atom   4.9713706899649219        1.2182007553347296        4.6509074751313095      H 
 atom   6.8973577164920332        2.8782941334400496        3.4099193836946360      H 
 atom   2.9460276733655388      -0.18700110787819332       0.74668050263017904      H 
 atom   4.2935549177196934      -0.36764263827111315        2.3068807904072357      H 
 atom  0.99980071234403645      -0.92650314068417350        3.6677557998955810      H 
 atom   2.2343087617832844      -0.12220085714913896        2.7114329478973556      S 
 atom   4.5984255774909188        3.8242324109903003        1.1587546103978932      S 
 atom   4.2385340304524552        1.3297326145224109        1.1557138479336715      S 
 atom   2.2340744282705063        3.3032820534155971       0.35944114922253706      S 
 atom   2.5799170386267702        2.3918325219880487        2.7019913716824995      S 
 atom   6.6290819468693458        1.8820006773819391        1.9597554783000475      S 
 atom   6.2876504378820242      -0.65479854520259739        1.8992668013673653      S 
 atom   1.9170284745646169       0.77940583653678153       0.35424148751626122      S 
 atom   4.9517398701225916        2.9241322153621345        3.4768408526904668      S 
 atom   4.5982041075343600       0.43708521496420799        3.4840424492701612      S 
 atom   6.9657290067751134       0.94102139997570622        4.2361954639016739      S 
 atom   7.4140178887323964        3.3911702425764569        4.1574567023558462      C 
 atom   5.3005065549456365        2.0289686389388093       0.33835893738731060      H 
