 # 49 angstroem -120444.425837184
 lattice_vector   6.3447792023728891        0.0000000000000000        0.0000000000000000     
 lattice_vector  0.70456557174101386        5.0056150248504352        0.0000000000000000     
 lattice_vector  0.64361528539787471       -1.8249980298629191        4.6808954977756922     
 atom   5.4186122012923708       -1.1432901354006686        3.8399627007207822      H 
 atom   2.5797884864309397        2.8515969030163713        3.7148080527733245      H 
 atom   2.1929165864957723       0.30889404349200744        3.7736268311036811      H 
 atom   6.2863195962035006        3.2209544381554074       0.61935996237722235      H 
 atom  0.92287279723768834       0.47819176479236619        2.1322225434743531      H 
 atom   4.2492180011687779        1.7791839881638254        2.1514130134676264      H 
 atom   6.2637970641808192      -0.20831895486431112        2.9834060466743271      H 
 atom   1.2426741666363921        1.3521174103735094        3.3122014974807907      H 
 atom  0.54914153533058896      -0.25996575664878191       0.93600361408744226      H 
 atom   2.9527062186187152        1.9842653702358712       0.58891684314581172      H 
 atom   6.1726773652516789        4.4909389246148059       0.22869047284772831      H 
 atom   4.2378769395746678       -1.6187508962846280        4.4902322296885151      H 
 atom   5.6328552877418758        3.2788426147948866        2.5462664593391375      H 
 atom  0.93614245412618913        2.1970804576337732       0.85755732598044887      H 
 atom   3.6239288781176051        3.5736526862958278        2.9241403538896011      H 
 atom   1.2663706494932430        2.9561180573508050        2.0985171704680741      H 
 atom   5.7228127118924697        1.5800215157171140        3.7121396737092938      H 
 atom   2.2675402311198263        3.7768427047230668        1.3530434887485783      H 
 atom   5.0918405523192192        4.1150930499371405       0.20898608463108073      H 
 atom   3.2389590427763184        2.7511644998094957        1.8007386362160089      H 
 atom   1.6823269091488373        2.0413495509370483        4.5161716869892592      H 
 atom   4.9295736865252584        1.1245893086924471E-002   1.3560711717257623      H 
 atom   5.2843437418201304       0.79007271973866589        2.5209729221894084      H 
 atom   1.9235210947890486        1.2653803589621342        1.3777856840996594      H 
 atom   2.9688981841766555       0.29911366885320290        1.7068436078652911      H 
 atom   3.5624390161363890        1.8521503325828010        4.1097212629479118      H 
 atom   6.0264216098987760       0.85986763749052608       0.71042691476361752      H 
 atom   3.3043130444880515        1.0045696521829000        2.9529146185608717      H 
 atom   1.0052280291458449       -1.1674338304804899        3.0506025898408780      H 
 atom   3.2411774531463156      -0.63754767162190307        4.1025883200230311      H 
 atom   5.2873515849692740        2.4714007226210710        1.3433781621337342      H 
 atom   4.6130158559084551       0.90172651921852298        4.4874559611099540      H 
 atom   6.8248027914149860        2.4702773078489404        3.2093634663968982      H 
 atom   3.2593729062525352        4.4965147887279855       0.57344523364937527      H 
 atom   3.9314428447164049      -0.71578423506991029        2.1382997362913341      H 
 atom  0.70576183128059899       -1.2554784448002496        4.1530048257817311      H 
 atom   1.9630854115033707      -0.42444254741069209        2.5293306354578378      S 
 atom   4.2633924272413655        3.4723731854339852        1.0068534121682098      S 
 atom   3.9678905843952847       0.98515855494917270       0.95214567005413353      S 
 atom   1.9520039045655184        2.9586199963034954       0.19953101839606904      S 
 atom   2.2642152260793744        2.0281138759450563        2.5494654370395389      S 
 atom   6.2838139409619433        1.5332467163407051        1.8040078735592848      S 
 atom   6.6292486219654370        4.0064416231990769        1.7921637367408194      S 
 atom   1.5817773694520278       0.48052795095028011       0.18020733846387754      S 
 atom   4.6369515644820636        2.5563489625997660        3.3159569109118543      S 
 atom   4.2876756737846025        6.1945095113354623E-002   3.3330629277580459      S 
 atom   6.6447223972309128       0.57635870389144916        4.1107161212124188      S 
 atom   6.8853033083595374        3.1534641565338895        3.9968199615192486      C 
 atom   4.9675245322240675        1.6819322521353373       0.16228064051724672      H 
