 # 50 angstroem -120455.663242289
 lattice_vector   6.3797325966031426        0.0000000000000000        0.0000000000000000     
 lattice_vector  0.61242533095641738        5.0270519487055925        0.0000000000000000     
 lattice_vector  0.71919102355678488       -1.8369034146722500        4.6771842912467436     
 atom   3.6166164915807069       0.52632815783651521        8.9660106596940431E-002 H 
 atom   2.5633023807073601      -0.14778667978517909       0.85011995575840971      H 
 atom   3.1571316306747241        1.4947665316889547        3.1549543108255884      H 
 atom   3.5129987792294020        2.2427288996222239        4.3871558431759015      H 
 atom   4.2081607141325321        2.1825239322491963        2.3844901307612845      H 
 atom   2.1779201346423100        4.1474567130839919        1.6216989294204376      H 
 atom  0.69146115937693131        4.4827632308971559        5.7717188624039822E-002 H 
 atom   5.8467775193739087       0.82011874845545574       0.69109179625268913      H 
 atom  0.80680484870543012       0.99255402138580717        2.4021786146961075      H 
 atom   2.8165391001407651       0.60070908682875346        2.0390432539043899      H 
 atom   3.2431666836018298      -0.25205442949350476        4.3973728903318134      H 
 atom   2.8117691643979765        2.4260058355106406       0.83547057028633653      H 
 atom   1.1467749754935628        3.4483768489597577        2.4111830549544462      H 
 atom   3.9326671321795947      -0.37203103573253493        2.4016756719058394      H 
 atom   5.2664450445368232        1.1550439576775184        2.8628966169365211      H 
 atom   5.1489306541036317        4.5383680556332724       0.64708362932925845      H 
 atom   5.6003849270149866      -0.85867422930865112        4.3904936342756029      H 
 atom   2.7218634767701273      -0.97868862378697352        2.8074534093727945      H 
 atom   1.8771710720419394        1.6397055270456145        1.6139200291385323      H 
 atom   3.9140628923565139        3.0630177806745111        6.2375616714675335E-002 H 
 atom   1.1757079465137006        1.7369426979969098        3.6241712536367654      H 
 atom   4.8882865321967692       0.40732241317447287        1.6182726141690078      H 
 atom   2.5665667370297509        3.2545135658300768        3.9340893411145590      H 
 atom   4.8506478497488335        2.0507337337316369       0.49011792256997588      H 
 atom   5.5989600233340706        3.6459780494239666        2.8523183104433674      H 
 atom   6.2267302813598731       0.10793355896279697        3.2126451724867939      H 
 atom   5.1848066130999158        2.9384022482007235        1.6405837252049618      H 
 atom   5.0314436413463612      -0.48281497959690850        3.7603041134598221      H 
 atom  0.82659144596351308        2.6086804609564065        1.2599368319146795      H 
 atom   6.3388739624229293        2.7011861350530380        4.1357341930883171      H 
 atom   6.5847888522343725        2.6043470231433323        2.9679587854278724      H 
 atom   7.0319587156233458       -1.0295016618633350        3.6855560227857751      H 
 atom   3.2771358403821056       -1.1670134361933950        3.5695021429866167      H 
 atom   2.2166078550187005       0.71353098616482724        3.9824450593263534      H 
 atom   3.1850315290850544        3.0885865909632875        2.0448142769680908      H 
 atom   1.7815745855589113       -3.3713928940243172E-002   2.8103718722581994      S 
 atom   4.1728542098427983        3.8637566039031483        1.2398758902107059      S 
 atom   3.8526259061548211        1.3636360117037554        1.2487281074889569      S 
 atom   1.8054036519206669        3.3621362948906350       0.45650455903645293      S 
 atom   2.1598143679468413        2.4471186415990891        2.8166974085228702      S 
 atom   6.1794176716268847        1.8596177985444033        1.9528209479916496      S 
 atom   5.9097438401422719      -0.62512465678925089        2.0317311800607718      S 
 atom   1.5064701086891585       0.84991067589244285       0.45877145050360424      S 
 atom   4.6812737885779603        2.7977976685881609        3.6394833400509250      S 
 atom   4.1612100281591582       0.51328041065115748        3.5531682486645586      S 
 atom   6.5494459406069536       0.97630269180173912        4.3539711613193202      S 
 atom   6.4557349064568683       -1.5502877064573393        4.4132526641534477      C 
 atom   6.2198137371064659        3.6208564796855405       0.82100734961313138      H 
 atom  0.43509176393335702        1.8340523586786290        4.6525451641264676E-002 H 
 atom  0.55766849286144393        8.4703623842703482E-002   1.2698233224262556      H 
