 # 47 angstroem -120420.135532438
 lattice_vector   6.3059600017199937        0.0000000000000000        0.0000000000000000     
 lattice_vector  0.67639622654427323        4.9875709981338172        0.0000000000000000     
 lattice_vector  0.65251937740208721       -1.7890255144648377        4.6341400905567980     
 atom   5.4204100831749722        3.2796091705541084        3.8028548468746233      H 
 atom   3.9493175470968032        1.4343216373832222        3.9097592929070921      H 
 atom   5.8607251419159807      -0.64074327763971506        4.4128351322552648      H 
 atom   6.0867802198702421      -0.78077994419512409        2.7870018440737763      H 
 atom   1.8954017746763763        3.4639593605315628        3.1285608220528078      H 
 atom   3.6007555785630290        2.3519675247037801        1.5987097882193251      H 
 atom   5.9457259944852172        2.8073167536849049        2.2866028663844182      H 
 atom   6.6057545864061726        2.8154324223736640       0.43275609353230859      H 
 atom   2.2602922888197376        2.5991803716759727        1.7917236499509649E-002 H 
 atom   1.6421200590193490        4.3218839573631591       0.81809446391018736      H 
 atom   4.5725238578428842      -0.22929184958644375        3.1381718356028174      H 
 atom   2.5594493161979481        2.4126957352898958E-002   3.4863361962875090      H 
 atom   4.6049485009628377        1.3784873761260390        1.9854839339336692      H 
 atom   3.3176265686547017      -0.15015226919128380        1.6131413655680615      H 
 atom   3.5964906152275069       -1.0211930309553470        3.8980939473765162      H 
 atom   2.3027923995076187      -0.85393913497717433        2.3486273732110972      H 
 atom   4.2935804175512775       0.57005943673850024       0.74537293845680408      H 
 atom   1.9228271522144376        4.7587791897213565E-002   6.0009857702276889E-002 H 
 atom   5.0519818672278172        3.8737326508740728        2.0710116977656030      H 
 atom   4.6058596047338369        3.0984369497968873       0.87208555991966030      H 
 atom   2.6793304222444179        3.3954056536267925        1.1461887176756902      H 
 atom   5.6234460161141087       0.39756325337228626        2.3610346807233085      H 
 atom   7.0480286234724892        2.9098913476292290        3.7955068220315784      H 
 atom   2.9885605490134086        2.4587712737451874        3.5175105575652199      H 
 atom   6.9522238691087068        3.6100035047140095        1.6127785333567781      H 
 atom   2.2645412834744860       0.80370679539890710        1.2478830129547696      H 
 atom   4.9723755877372122        2.1799601086727587        3.1536414574375686      H 
 atom   6.9515745097769557       0.20331725889237753        3.8087353720245609      H 
 atom   6.2129878022183647        2.0659919249207279        4.6300214305631195      H 
 atom   7.0212975761135610        1.9014318948310467        2.7954565853098154      H 
 atom   2.5294948717689145        1.5861815862361057        2.4400556323575011      H 
 atom   4.9918755623777988       0.46216414765975078        4.3084222200295450      H 
 atom   1.3056989430631065        1.8243727403832954       0.81619626016087099      H 
 atom   6.2848374051965674       0.33272721436697383       0.43046080899184136      H 
 atom   6.6212493331789792        1.1664360385112349        1.6117990997101945      H 
 atom   1.2654663876945607       0.14058335874966738        2.0173329490411938      S 
 atom   3.6655910651186452        4.0857785787151553       0.39657631438646990      S 
 atom   3.2783307073201979        1.5547687406131232       0.43948676492888417      S 
 atom   1.9191263771895231        1.7336627214029479        4.2669492201474428      S 
 atom   1.6519743469424109        2.6489636138339874        1.9783910708048886      S 
 atom   5.6122287634882912        2.0969091007307696        1.1834757219495646      S 
 atom   5.2809961895101205      -0.38912262751689908        1.1861125792837275      S 
 atom   1.6161852793261817      -0.74461487543700267        4.2907164989555113      S 
 atom   3.9378436914894581        3.1682473138784482        2.7500783186358158      S 
 atom   3.6275167577693610       0.66053638323308639        2.7451261423999855      S 
 atom   5.9521689572291754        1.2100941911657748        3.5266138937710458      S 
 atom   5.6846319649354680       -1.2987760331697340        3.6004503348642731      C 
