 # 51 angstroem -120467.955126472
 lattice_vector   6.3914509982814209        0.0000000000000000        0.0000000000000000     
 lattice_vector  0.68172227514256445        5.0508257547224247        0.0000000000000000     
 lattice_vector  0.68192915278810295       -1.8593731656185852        4.6948550852850817     
 atom   6.0722142716435226       0.26656352273713185        2.8429841905571629      H 
 atom   2.0215338441975277       0.72897101298693279        3.6410400889567982      H 
 atom   3.3873461794980604        2.2593364773582398        4.0397461294627917      H 
 atom   4.0443790012903174        2.1892527996494162        2.0479369853684810      H 
 atom   5.0552154696936382        2.9215378251134299        1.2496456649728624      H 
 atom   3.0309172265773245        1.4850223528290871        2.8447563001750042      H 
 atom  0.76263322768368469      -0.64712893148230821        3.0772689059885603      H 
 atom   5.8962902319722845      -0.55439147941720490        3.9210422299387209      H 
 atom   3.7330461921579778      -0.31487835351070048        2.0678692752576575      H 
 atom   4.8565692014731638      -0.48266203179599121        3.5121583105553831      H 
 atom   4.1279329358363386       -1.2751043572851284        4.3967118157501419      H 
 atom   4.8694755020498812        4.5021735582812568        9.6805118603966830E-002 H 
 atom   3.0833058561029492      -0.22989110823103795        4.0115577113747989      H 
 atom   6.3733943863165372        2.9096603417799818        3.1394958824877439      H 
 atom   2.6976351513114696       -1.0364944631887993        2.8460248266839971      H 
 atom   2.4017555643625976      -0.14874304228150889       0.52684013894301074      H 
 atom   1.0295166354064875        1.7781258071836117        3.1996227873237597      H 
 atom   4.7441952636859854        2.1398474978643103       0.10610379743000889      H 
 atom   1.4244975120924892        2.3171709049729894        4.5036546776973001      H 
 atom   3.0319024353177366        3.1902510877907244        1.6867564002656030      H 
 atom   5.1541231920698047        1.3456235263202981E-002  0.22596762855767136      H 
 atom   5.4116443004234807        1.9777319689160568        3.6031498583107791      H 
 atom   4.7358469241466912       0.40015382663795290        1.3249787543973874      H 
 atom  0.31280606075732276       0.11699599701777523       0.83486977644929028      H 
 atom   2.0643664278671183        1.8145971469762021        1.4887446437343275      H 
 atom   4.4179929220138767        1.2611003493920452        4.4267889963328599      H 
 atom   2.0200590040839712        4.2045469849104533        1.2828657262274006      H 
 atom   2.7370206782345363       0.67616439708339482        1.6315607682108688      H 
 atom   5.0572191720257953        1.1812574759062353        2.4389445173246220      H 
 atom   5.4239674313373936        3.7139290737273436        2.4338701242998035      H 
 atom   1.3972693027799534        3.4052911828448975        3.8978720602078978      H 
 atom  0.70174585188275207        2.6836858848497158       0.86121170632962363      H 
 atom  0.70275960114326885       0.90411956427935181        2.0704742186888669      H 
 atom   6.0692859782803437        3.6624410618863728       0.54956994968312234      H 
 atom   1.0222321967794810        3.4114461462771430        2.0991356550227711      H 
 atom   1.0004361889032856       -4.2445249261484824E-002   4.3699992511701984      H 
 atom   1.7335509495493193       -2.5234114294899551E-002   2.4295817590969855      S 
 atom   4.0372521031554145        3.9024488247474141       0.92354172990964201      S 
 atom   3.7638486676480554        1.3791102496472118       0.85628447584933598      S 
 atom   1.7346131715158730        3.3580292467523249       0.13026997722046155      S 
 atom   2.0700247233238187        2.5476775701852401        2.5794752668735548      S 
 atom   6.0772695584831089        1.9674157175298239        1.7211777317431320      S 
 atom   5.7611398620536374      -0.61048096102501814        1.7056992240323434      S 
 atom   2.0505895308021840       -1.0890297157825966        4.6567429452932645      S 
 atom   4.3933477147865538        2.9878138287660527        3.2248570166955899      S 
 atom   4.0371481540120531       0.50987828533973056        3.2280616564443640      S 
 atom   6.4424006714046502        1.0423045197918839        4.0193104888207012      S 
 atom   6.7323381914703582        3.4720076035902587        3.9436334714998682      C 
 atom   5.8862445738981553        1.2373661066043287       0.63463077271098034      H 
 atom   1.2083538138281720        1.5061718127159103        1.0515082906368278      H 
 atom   2.7387714082687875        2.3564072844887409       0.48576456336539531      H 
