 # 48 angstroem -120432.769214202
 lattice_vector   6.3310497320548702        0.0000000000000000        0.0000000000000000     
 lattice_vector  0.67290537635528935        4.9706892033218342        0.0000000000000000     
 lattice_vector  0.67468172092533518       -1.7813398724141545        4.6416653695456684     
 atom   5.9478702676316937       0.61444704611716439        3.4786971685307488      H 
 atom   5.5433198513505770        1.3821057247961537       0.92324326724253303      H 
 atom   2.9922506062620262        1.8336826783414202        3.4831463654450254      H 
 atom   1.2757955982914535      -0.41963573633327445        1.9094093897996964      H 
 atom   6.7493640635992156      -0.47769452264275203        3.9985076660020109      H 
 atom   3.9618453583777637        2.6000205067455120        2.6854496298698076      H 
 atom   7.2619177143608464        3.8291945766021227        2.7192629305213285      H 
 atom   1.5807590765457087       -1.3004045705473513        4.2411521983719123      H 
 atom   2.5778951320417005        1.0495750220082600        2.3407727953708104      H 
 atom   4.6387177187671051       0.83540662628656848        1.8761499860869042      H 
 atom   2.2673747289691493       0.29389822194790277        1.1448342512380925      H 
 atom   3.3170086251934285       0.99902075547050651       0.34993378904780070      H 
 atom   2.9383489584674436       0.20805921128422425        4.6201289719322398      H 
 atom   6.9545199605501278        3.0429841364735415        1.5287138955338122      H 
 atom   2.9905201010319056        3.6189048389153848        2.2523041509720536      H 
 atom   4.4764613783938323       0.17070582377715865       0.60158991924811556      H 
 atom   6.0779260629546750       -4.5600485277617932E-002  0.28509647861719628      H 
 atom   5.1537038795040893      -0.26167757161146138        4.3149001458556731      H 
 atom   3.6225929415676648        3.4894849269206407       0.36116699301971844      H 
 atom   1.6085545498426987        2.0780605074699765        1.9003120595134289      H 
 atom   5.3237607284475690        2.4468292146680222        4.2238461962211016      H 
 atom   6.9577421062334714        1.3661826750716959        2.6809726420718478      H 
 atom   3.3046501618443425        2.6776829088939325        4.6140433539228614      H 
 atom   1.9484932307655018        1.1801659272850888        4.2275327444148738      H 
 atom   2.6312179702291791      -0.59750124032070551        3.4466166139699816      H 
 atom   6.3607296548260237        3.2793827763843817        3.6850647642529046      H 
 atom   4.9446470272400269        1.6263061478065104        3.0621670709892590      H 
 atom   4.9435344129180274        3.3029327223181748        1.9094125609269059      H 
 atom   7.2616892144280509        2.1907458544843990        3.8447733495329621      H 
 atom   4.6367552643058199        2.4767367288353301       0.74502797459327441      H 
 atom   4.6520697705834939      -0.87989136823970526        3.0936884131347711      H 
 atom   3.6226073392147393       0.11324647063430814        2.6812616991024765      H 
 atom   6.5788732411976820       0.57204621028445057        1.5016583464787669      H 
 atom   5.9502990472664834        4.0527584015062450        1.1139857885680842      H 
 atom   6.5784480697816123        2.2197780832814402       0.36522898899023687      H 
 atom   2.5825973965715687        2.8362396558984608        1.1093967797001800      H 
 atom   1.5748400662670723       0.35397746841896771        3.0974975316070235      S 
 atom   3.9969669807152237        4.3136933456092077        1.4937706389402683      S 
 atom   3.5898253931212638        1.8034504070292232        1.5247796191029139      S 
 atom   1.5729755771376583        3.7920072198131241       0.73419174695943656      S 
 atom   1.9800409097574920        2.8633608754431550        3.0668931491860509      S 
 atom   5.9498311573599576        2.3326123876657863        2.2932108151183472      S 
 atom   5.6144766892532587      -0.15305733424608339        2.2973856922213933      S 
 atom   1.2802033516765916        1.2675429251752885       0.74816947074453310      S 
 atom   4.2910353859099333        3.3977210200714905        3.8448141653731573      S 
 atom   3.9958690257137501       0.87546187700727007        3.8567018498863503      S 
 atom   6.2884357985372024        1.4422220974152784        4.6163043476011083      S 
 atom   5.9519348115125403       -1.0421033009538874        4.6172087429063335      C 
