 # 49 angstroem -120444.23628511
 lattice_vector   6.3715491235246366        0.0000000000000000        0.0000000000000000     
 lattice_vector  0.67499340479925274        5.0040421147675609        0.0000000000000000     
 lattice_vector  0.69169594219982999       -1.7901746055511805        4.6614948475103022     
 atom   6.6574708495452919        3.2813169033095586        3.8733300357888334      H 
 atom   3.0308281563624702        3.2161410389139102        3.8743230428339821      H 
 atom   2.7353299556961370       0.72942887165388093        3.8592335892602661      H 
 atom   6.7274609960348979        3.6661295862530947       0.68846606351139061      H 
 atom   1.3250552678618006       0.95092062661277876        2.3271257846315052      H 
 atom   4.8452230697865746        2.1367623765485275        2.2914274939944934      H 
 atom   6.0762414555388364        1.9676506891715708        3.9080990504319919      H 
 atom   1.6720346488209308        1.7581197299265829        3.5078255770756481      H 
 atom   5.3952900141494151        2.0519218351626405       0.39788379765950194      H 
 atom   3.7019373557588851        3.0971319485095887        1.9458960433489481      H 
 atom   6.1069513695155893       0.90104334710530931       0.46584332242698384      H 
 atom   4.8160076260352440       -1.2522465798234894        4.6342331104093439      H 
 atom   4.3920089657844832      -0.35438656136886165        2.3103483755283425      H 
 atom   2.4379064258120957        1.6025754641312133        1.5144889691445043      H 
 atom   3.3598206619700446       -1.0381539733631870        3.0658032311734416      H 
 atom   1.7006591006567064        3.4084777260012595        2.3971946521666472      H 
 atom   6.7893150669915547        2.3937498793313745        2.9963127221323780      H 
 atom  0.96861257422439839       0.13318789463092745        1.1412168179020514      H 
 atom   5.6410942749008353        4.4894129089104577       0.46822523927827792      H 
 atom   2.7175286594913470        4.1293857560154361        1.5389279113716337      H 
 atom   1.7817614649121416        2.6897200681731661        4.5472853538552647      H 
 atom   6.7292692242970871       0.21215674185068215        3.0758237647860591      H 
 atom   6.0040781108759536        1.1676038812522935        1.7987237679766186      H 
 atom   3.3393087415772347        2.3801371574348593       0.72826092295442735      H 
 atom   3.3488083548294862       0.57790682039282792        1.9612558184937177      H 
 atom   3.9566191454022670        2.1539876465463501        4.3352643586308064      H 
 atom   5.6531498568600798        1.1286877359611409        2.8760346241066252      H 
 atom   3.7402955183674824        1.4547811123656222        3.0760414604691246      H 
 atom   1.6996841159917979       -2.0035694134507211E-002   4.6131445963948474      H 
 atom   3.7148394503378688      -0.29606777421709746        4.2727859871760483      H 
 atom   5.7026432241699974        2.9297553582994897        1.5175188614938395      H 
 atom   5.0686624175045507        1.2576748345023703        4.6364929980113798      H 
 atom   6.0633721342559017        3.6813224427506137        2.7156863547638603      H 
 atom   3.0478069327581689      -0.16574561260213541       0.73579079465347486      H 
 atom   5.3426331914875567       0.27630552816940857        1.4998411358198400      H 
 atom   1.0959885906822053      -0.92150689211034675        3.6083672475761772      H 
 atom   2.3330630962505108       -7.9034540891532348E-002   2.7125560217091471      S 
 atom   4.6908054355942426        3.8407003118018830        1.1491367641778933      S 
 atom   4.3474269909888852        1.3570943207264390        1.1465011229973676      S 
 atom   2.2779532165087217        3.2893692270501251       0.41809326505928346      S 
 atom   2.7042575919778500        2.4239552673813085        2.7202386984442044      S 
 atom   6.9779567905443178        2.0568779701826991        1.7559357043495964      S 
 atom   6.4023322193666488      -0.63367662671707614        1.9444294951256473      S 
 atom   2.0060239471583325       0.79968038787519757       0.37845223523925381      S 
 atom   4.9975617589030783        2.9494860812613650        3.4907313184662243      S 
 atom   4.6896417537017960       0.44090779321047163        3.4907875948833595      S 
 atom   7.0846184101669198       0.99815959501526885        4.2571900955036384      S 
 atom   6.8949146516868147       -1.4810373578378240        4.2904591648357142      C 
 atom   5.6773640121877289      -0.37901312730795833        3.8455860578929100      H 
