 # 48 angstroem -120431.492832491
 lattice_vector   6.3296840643654546        0.0000000000000000        0.0000000000000000     
 lattice_vector  0.68240962776058212        4.9790568406310873        0.0000000000000000     
 lattice_vector  0.68814769035367929       -1.7871730923218008        4.6659614513710350     
 atom   6.6160151151849256        1.0663700830975180       0.75475221817754268      H 
 atom   1.5135032032141749        4.5652229833656479       0.24633868790946845      H 
 atom   1.7955292374009106      -0.65891678059820502        3.9190966683695434      H 
 atom   2.0591274133038238        1.7381742701489071        3.9164183787580247      H 
 atom   4.7187671883293323      -0.32010775190932828        2.7646814460283191      H 
 atom   6.0584156326678107        1.1732796522555637        3.1712279596141113      H 
 atom   4.0166751624866111        3.2447486438934980        2.2923285886911060      H 
 atom   3.3600929378591977        3.2382439794865188        4.2999448343935081      H 
 atom  0.62554914417437535       -1.3366755727125825        3.7383450820281197      H 
 atom   6.8905351025526169       0.12582283859172205        3.1203626549463523      H 
 atom   3.0441001802522654       0.73429810469102508        4.2971492011024246      H 
 atom   5.9817631192750698      -0.41865487154295572        4.3037592730403924      H 
 atom   4.6867455151606805        3.0421494124593833       0.40484576238494036      H 
 atom   1.7626315942212709        2.5867016934504621        1.6228879996947907      H 
 atom   3.6685272938804818       -1.0183096534384359        3.5182932404999208      H 
 atom   5.9702762372970755        2.8662767675076628        2.0406403318028854      H 
 atom   5.7136198095120241       0.42709007907841057        1.9049734400452454      H 
 atom   3.6652648936017607        2.3717686692145765        1.1836046782734146      H 
 atom   4.0174799009037541        1.4451234614117690        3.5366515787007633      H 
 atom   1.6612571283124853       0.90980588526862594        2.8167760980432948      H 
 atom   2.1238433427312513        3.4856055661053569        2.6935884498183791      H 
 atom   3.2497459246022626      -0.19458759609942816        1.2589265577175786      H 
 atom   5.4998980493928125      -0.14691018522439805       0.51232113613698915      H 
 atom  0.83717887057362517       0.20023458302288794        4.0457757197090638      H 
 atom   1.4000096199950931        1.8083041509989033       0.45687873429502901      H 
 atom   3.7395071184895494       0.66692297577013071        2.3553512262493781      H 
 atom   4.3310795327724252       0.56714280642216564       0.42286936556093435      H 
 atom   5.6956001768876190        2.0691786989478897       0.82992219272094891      H 
 atom   3.7304694134373935        4.0356023124660307        1.0223614616294636E-002 H 
 atom   4.9989388614908865        2.1419124360025474        2.7617723795017888      H 
 atom   2.6934741079601552        1.5940537417971297        1.9822858175119540      H 
 atom   1.3705322950904304       0.13992740383388588        1.5597959611046155      H 
 atom   3.3503266079016951        1.5700639819117732        5.2686185818118670E-003 H 
 atom   6.4067069892667581        3.6779260060755403        3.1539297249443927      H 
 atom   6.3866070145430767        1.9995095333017707        4.3024173308537028      H 
 atom   7.3362290329445097        2.4608843444018862        3.4343572944023633      H 
 atom   2.6592633111212147       -7.0999886221741429E-002   3.0983123270590793      S 
 atom   5.0486993428882405        3.8762599547192211        1.5608784800886910      S 
 atom   4.6910700531117273        1.3708619073331063        1.5816967973150067      S 
 atom   2.6918210657828756        3.3673170175578209       0.80427918172010993      S 
 atom   3.0434310035288066        2.4459298336536062        3.1394428683033850      S 
 atom   7.0222902394084077        1.8832563004989575        2.2984357055921727      S 
 atom   6.6440347129769552      -0.71080262763282742        2.1325554608744040      S 
 atom   2.3598390863522631       0.83591273197946936       0.80525723610710664      S 
 atom   5.3844295327720904        2.9841648678854487        3.9124494274015533      S 
 atom   5.0631005939230747       0.47219793528287973        3.9079157413948664      S 
 atom   6.7342070014741333        2.9676544529038487       0.22402595087850774      S 
 atom   6.3710590001257117       0.27969670163270571       0.10092387448921053      C 
