 # 48 angstroem -120432.655023391
 lattice_vector   6.3334825849549032        0.0000000000000000        0.0000000000000000     
 lattice_vector  0.65190476481559545        4.9965933867871071        0.0000000000000000     
 lattice_vector  0.68626526661814102       -1.7821643297756047        4.6531538973274804     
 atom  0.62862984492481566       0.97280997180152395        1.0927524430721640      H 
 atom  0.90297563945979786        3.3969231207007886       0.90214881624230592      H 
 atom   1.5402203366606377        1.5534665454281560       0.14556391325698328      H 
 atom   3.2329085195445608       0.50975849964454245        4.0307619454383188      H 
 atom   4.6161850460183533       0.34863925013630531       0.13051020084402723      H 
 atom   5.2717987895301643        1.9620278897911945        2.4733554966632338      H 
 atom   2.2149748676404921        3.1796502797543909        2.5040336769501326      H 
 atom   1.6756507139333603       -1.0988836896730783        3.8332719852950468      H 
 atom   1.6111644870398949        4.3062411205502640       0.14294006209484272      H 
 atom  0.91637887475047486       -4.4817095988830470E-002   3.2749530814042762      H 
 atom   4.2151627266258664        4.6029009635100238       0.87195692043822537      H 
 atom   4.2520348848543001      -0.45396575753255025        4.4238712177617314      H 
 atom   4.8551374207166811        2.8876929699449425       0.14535501062008344      H 
 atom   1.9397773586292495        2.4142484896886827        1.2599918774887384      H 
 atom   4.5707482897200924        3.7450710520095885        3.2552686613981292      H 
 atom   6.1823697149206858        2.6970921727973898        1.6729278914545234      H 
 atom   4.9069934764002809      -0.54979689888609662        2.4941305791472366      H 
 atom   4.2079019952837715        2.9300656793655824        2.1168755332858966      H 
 atom   4.2317543973401497        1.3113210206992385        3.3229535724952552      H 
 atom   3.2184592188656995        3.9216153361202841        1.7067792999559832      H 
 atom   1.1524267647562401        2.7227090290739282        3.5879310609753450      H 
 atom   1.5354189799175970       -9.8366727174247645E-002   1.2793040602912502      H 
 atom   6.6111740609883620        1.7729752032831043        4.0167414737472980      H 
 atom   6.1447119766081970      -0.64301532847226606        3.9272013962363892      H 
 atom   2.2050759459267688        1.5421147932213912        3.6452606364242457      H 
 atom   3.8553296418111600       0.39718484471297560        2.1456290252130632      H 
 atom   5.9253057055846527       0.15673537229899251        1.6962088348254607      H 
 atom   5.8945254371520548        1.8639132684696340       0.52605646476450807      H 
 atom   3.5880009360567260        2.9717061181991946        4.0626809406231486      H 
 atom   6.4965044109832846        3.4036806288578445        2.9270450339022926      H 
 atom   2.8976078973640744        1.4208723324494914        1.7005098757912465      H 
 atom   6.1466062953040046        4.2470097723178757       0.58033023068887635      H 
 atom   3.8536860011578566        2.2013499523593940       0.89993449388626889      H 
 atom   6.0497878420988931       0.50373067134044913       0.33972762824879438      H 
 atom   6.2115236612983313       0.92997230513116036        2.8849270626747807      H 
 atom   1.8653534248933161       0.69755222143365925        2.4592057945336694      H 
 atom   2.8730150488540382      -0.28714949625971709        2.8858235575729476      S 
 atom   5.2121558135324619        3.6612891249354504        1.3248560432486551      S 
 atom   4.8510827346398147        1.1579440850695242        1.3361488439977596      S 
 atom   2.8900260704013196        3.1552704580376312       0.51188114423141529      S 
 atom   3.2097125116095206        2.2243693472604997        2.8749584571701492      S 
 atom  0.91751191790841102        1.7269784461051305        2.1267626736311542      S 
 atom   1.2003366944499980        4.1599376070426901        2.0927392814117565      S 
 atom   2.5442503149442972       0.59861897515041573       0.53871140918903726      S 
 atom   5.5100353724795150        2.7229580687518933        3.6887098859638221      S 
 atom   5.2259254187260051       0.27880146305276643        3.6564313371438137      S 
 atom   1.2355818870045336       0.77416201106599847        4.4133302609924963      S 
 atom   1.6819300908286505        3.2321185453994694        4.3274609044527850      C 
