 # 49 angstroem -120445.381700208
 lattice_vector   6.3759256971684826        0.0000000000000000        0.0000000000000000     
 lattice_vector  0.68565301741170559        4.9954792721781898        0.0000000000000000     
 lattice_vector  0.68651575935753428       -1.7952324349635305        4.6623054556658703     
 atom   5.6860981185785686      -0.99274405288825107        3.9419403005389193      H 
 atom   2.6799187847769028        2.9278983240254006        3.8646314683191254      H 
 atom   2.3739097374668132       0.43224055957313895        3.8626244850947993      H 
 atom   6.3980069066460272        3.3118897732475223       0.73137828104005653      H 
 atom   1.0580750164352195       0.55284900910848478        2.3045009392610156      H 
 atom   4.3860135307572943        1.8596932554375778        2.3035351230345800      H 
 atom   1.0985076122199477       -1.0215506515711597        3.3360795389692379      H 
 atom   1.3634092252255017        1.4128803342758458        3.4659179826822504      H 
 atom  0.66589840816521162      -0.21404311329421191        1.1303914608122640      H 
 atom   3.0780554999323244        2.0129381182162063       0.76832543874409387      H 
 atom   5.0824669974667378        6.5642047396197042E-002   1.4757892886795778      H 
 atom   4.4258555538110311       -1.5401356880107149        4.6232706568318189      H 
 atom   5.7671752492230333        3.3539679415561987        2.7134219305454037      H 
 atom   1.0571242552704492        2.3256244407039293        1.0863773555069276      H 
 atom   3.7306280697341059        3.6268553509286989        3.0927793137221218      H 
 atom   1.3628796008074533        3.0994445152812098        2.3056490195850299      H 
 atom   5.7672477847817820        1.6999054982477406        3.8477172388894800      H 
 atom   2.3740816258945707        3.8232394928254116        1.5343769240687095      H 
 atom   5.6829092415575566        4.4101941672571208       0.23157512076182457      H 
 atom   3.4288558609926096        2.8749075379923439        1.8867570833215801      H 
 atom   1.7850836237868604        2.0585856818277870        4.6513644047458724      H 
 atom   6.3978032665638045      -0.13136762008385727        3.0954342723767798      H 
 atom   5.4158614480168890       0.87786228817417689        2.6416178695734978      H 
 atom   2.0129391724298915        1.3315179081166340        1.5387253898981161      H 
 atom   3.0768612717360226       0.36752390244883637        1.8982670980487713      H 
 atom   3.7311062387130551        1.9558118461770486        4.2395696279599742      H 
 atom   6.1000042461282877       0.89623323804510913       0.90406646997076523      H 
 atom   3.4294820703421829        1.1026972624204323        3.1033522674989160      H 
 atom   1.3516557684233645      -0.28971134038398372        4.6115974142730476      H 
 atom   3.3982976532655726      -0.53109287609176981        4.2367185330050621      H 
 atom   5.4166145121557472        2.5252213201200537        1.5112776345190131      H 
 atom   4.7364316653101994       0.95762286212540637        4.6304620129761727      H 
 atom   6.9809382216602538        2.5670541237074684        3.3388189062905163      H 
 atom   3.3990787092312083        4.5196056980635744       0.76804469712271817      H 
 atom   4.0499717347878121      -0.64504122835710287        2.3010475871178175      H 
 atom  0.82189702320545233       -1.5938038004219521        4.5569189917135660      H 
 atom   2.0667678691658744      -0.37237760365707118        2.6906382109456257      S 
 atom   4.4325615325873509        3.5581922459072683        1.1278387342373968      S 
 atom   4.0681871499304405        1.0459795308524051        1.1242399990176077      S 
 atom   2.0669156444444612        3.0185393095529283       0.36245862934217571      S 
 atom   2.3961645539167908        2.1243853172125262        2.6937153242621035      S 
 atom   6.4310673235793514        1.6165355189360786        1.9533759969653930      S 
 atom   6.7444111861551654        4.0831070987964981        1.8967525983016940      S 
 atom   1.7401308425142770       0.52069581512013519       0.35704807026667801      S 
 atom   4.7593172317574313        2.6535213045501589        3.4647301754474817      S 
 atom   4.4328752059595722       0.14867470605573213        3.4685773010886689      S 
 atom   6.7444395893594207       0.67682542165716575        4.2354124390299930      S 
 atom   6.9418374511961485        3.1578966797463122        4.1990170434671796      C 
 atom   5.0808713139172550        1.7283038248354174       0.33564857871624360      H 
