 # 47 angstroem -120419.709032417
 lattice_vector   6.2876037536277760        0.0000000000000000        0.0000000000000000     
 lattice_vector  0.73897866312759319        4.9492234339961705        0.0000000000000000     
 lattice_vector  0.62120408089341383       -1.7478700175642423        4.6582359737878152     
 atom   1.3777778594915784        2.7550753577344391        4.5585831268665302      H 
 atom   4.2291257747378923        2.2075321056065986        2.3407447009091809      H 
 atom   2.2411356333648005        4.1404220426664544        1.5177069102396126      H 
 atom  0.64848380866969924      -0.82218752821436591        3.7155831144159182      H 
 atom   5.9199810012664917        1.3121292362310273       0.84611181250684331      H 
 atom  0.51095886516493028       0.18804850436296836        1.1192034014789833      H 
 atom   2.8902150876694814        2.3761223020229392       0.74912139047199033      H 
 atom   1.1845634362539625        1.7613772325922648        3.4550543352924978      H 
 atom   5.1807613047702201       0.39947435675572684       0.57562383495901792      H 
 atom   2.5357821006884902      -0.11760697766545410       0.76255828128771974      H 
 atom   5.3503850328535538      -0.62148779825205991        3.9368401245575551      H 
 atom   4.2183635866477953       -1.1520398650998729        4.6343871988810879      H 
 atom  0.88508294231109197        2.6538997088922582        1.1365673500785638      H 
 atom   3.1556656732115238      -0.17455116852876662        4.2514967604524783      H 
 atom   5.5085418284586316        2.0282176854261049        3.8182335116182275      H 
 atom   1.1838014052003236        3.4811568111060200        2.3398303174732478      H 
 atom   5.1310462258607608        1.1657749312085650        2.6141985634702420      H 
 atom   2.7815136405325243      -0.86889177798327333        3.0277294397993009      H 
 atom   1.8458598052635076        1.6590496308232223        1.5459288019864894      H 
 atom   5.2766425816005702        2.8405187867421788        1.5417988640848501      H 
 atom   3.1836913260570863        3.1649986608548693        1.9283868594644085      H 
 atom   2.8088666556121171       0.66093443330077517        1.9679571096149631      H 
 atom   3.2445815749302818        1.4634201818891406        3.1139585967545007      H 
 atom   3.5410814889273357        2.2752229644278401        4.2671657002343490      H 
 atom   6.5289319882559100        2.8837973840844695        3.4301850745660096      H 
 atom   6.2324304954709611        3.6660528042721228       0.73445890929258251      H 
 atom   5.5947532201238763        3.6530785541438715        2.7209695589184961      H 
 atom   2.2126675325524219       0.79071435731226125        3.8699231312552795      H 
 atom   1.1946195823302368        7.4212958927850889E-002   4.6211908964802308      H 
 atom   3.8994841986171322      -0.20286817913191391        2.2469818971177165      H 
 atom   4.5107944173370438        1.3370681387914403        4.6512602131632921      H 
 atom   6.2254715727555503       0.25808095598480446        3.1068559413954642      H 
 atom   5.1072151990214358        4.4563428824094373       0.36452424967396141      H 
 atom   2.5667999964051695        3.3149028465386485        3.8494966930194843      H 
 atom   4.8797236321917898        2.0615661332187187       0.36068775393579661      H 
 atom   1.7726328059894756        5.1428467651581024E-002   2.6875419632071975      S 
 atom   4.2530664652455288        3.8498046710324250        1.1790933405684703      S 
 atom   3.8672432415504767        1.3722517337751803        1.1674691630874598      S 
 atom   1.8727781131662535        3.3782874064205832       0.36518000935389033      S 
 atom   2.2226722896856783        2.4743989073592889        2.7038692253526984      S 
 atom   6.2531483177761205        1.8951268366995959        1.9851431417193854      S 
 atom   5.7779709807739499      -0.50218461168760553        1.9227352428681179      S 
 atom   1.5425172641620959       0.86022219965506852       0.36714900559632896      S 
 atom   4.5199689041283317        3.0268825089445062        3.4641363408134418      S 
 atom   4.2252444860128096       0.47518421183534959        3.5005419896744105      S 
 atom   6.4908869073952289        1.0741054401502641        4.2439695646570099      S 
 atom   6.1732944040246291       -1.4131135162837234        4.1782726411253943      C 
