 # 50 angstroem -120454.971414674
 lattice_vector   6.3918677170687159        0.0000000000000000        0.0000000000000000     
 lattice_vector  0.65397782635423252        5.0230000036788569        0.0000000000000000     
 lattice_vector  0.64258597522423810       -1.7707110596249080        4.6744613813552416     
 atom   5.0421969292220057      -0.67845853271906642        3.8595218229481643      H 
 atom   1.7746114026297599        4.1572705722627266        1.4555314252184495      H 
 atom   2.8201085300950943        1.4090665371450104        3.0289866866654220      H 
 atom   3.0929670823186899        2.3100630500389707        4.1628877883199857      H 
 atom   3.7121727493628214        2.2301571762243948        2.2505130718911159      H 
 atom   7.1847910664836085        3.4080706045943288        3.5886520344587409      H 
 atom   4.5895725974444099        4.5748692011568544       0.58871518748068274      H 
 atom   3.4448861733574088      -0.31817334173212941        2.2442624742343842      H 
 atom   5.4775885955950869       0.64484190000529551       0.45099915311342420      H 
 atom   2.5056598276726372       0.66656162852787282        1.8012974027184785      H 
 atom   5.0375648407717275        1.9871363632863632        3.8340007740371616      H 
 atom   1.7417424632279637       0.79118294115568677        3.7855808902286063      H 
 atom   6.8410874867842200        2.7777052570728369       0.93442351324237893      H 
 atom   2.8419184546736749      -0.14668739635785757        4.1210447188481192      H 
 atom   5.7811517898662279        3.6001804849127819       0.70011220993057566      H 
 atom   7.5353798962696219        2.4613180005780215        4.6514345565216919      H 
 atom   6.8920969494285815        2.0473322871566682        1.6430930387751777      H 
 atom   2.4446824736210044       -1.0557620542503339        3.0095736377664468      H 
 atom   1.5258708146261266        1.5822591431218236        1.4155377944044696      H 
 atom   4.8683644031575986        2.9377297749408200        1.4925145545569072      H 
 atom   7.1415289760672325        3.4472651213534489        2.2036475763198173      H 
 atom   2.1715220946551388      -0.17627115238742455       0.68847033802751090      H 
 atom   6.9022218460965714      -0.54769222234757309        3.3232182827515109      H 
 atom   5.1261780322870862        3.7448614985018787        2.6738998994907104      H 
 atom   4.0950400281545773        1.3327635841939365        4.5735562976155428      H 
 atom   5.7545101265103691       0.14599118848536247        3.0263623065600647      H 
 atom   6.1260252456800988        2.7670204797550308        2.8771514126613287      H 
 atom   6.8755967963234861       0.88027306109917169        2.3019370364308860      H 
 atom   4.4410785960719537        2.0965075463833531       0.26241544993167831      H 
 atom   3.8243693571558630       -1.2053414764819208        4.5671505111522537      H 
 atom   4.5042289482669240       0.40460235752562695        1.4806948527543706      H 
 atom   6.5154138209645556       0.17611284778591949        1.0903269434669653      H 
 atom   2.0728903112082024        3.2887336257332560        3.8036320229948299      H 
 atom   7.2277726973001180        1.8901464825603780        3.3303940603396396      H 
 atom   2.4574731758607116        2.3477865621315113       0.71159009055955325      H 
 atom   1.4765924331408806       -2.5437816742825445E-002   2.5991245973571035      S 
 atom   3.6990439306098670        3.7975957253506856        1.1466753777072316      S 
 atom   3.5015564354611000        1.3900624554608199        1.0509222765146753      S 
 atom   1.4738168827255445        3.3643644656778666       0.26476470884377123      S 
 atom   1.8622905898523212        2.5051939523493560        2.5751800421742663      S 
 atom   5.5881718741702402        1.8210520904195657        2.0753280001520085      S 
 atom   5.4973964835870435      -0.59751517441448565        1.8505402898616752      S 
 atom   1.1516298150394964       0.83065380414387602       0.26108764161224285      S 
 atom   4.1118993355837894        3.0279981420565796        3.4194231529062602      S 
 atom   3.8481093554010499       0.50680523877940553        3.3725328399738834      S 
 atom   6.1604461805335013        1.0376631369983551        4.1709039270010324      S 
 atom   5.7290167788118840       -1.3896526409907903        4.2058327582705886      C 
 atom   5.9009439156573871        2.7263693641435989        4.3437674405865598      H 
 atom   7.1913688921013410       -1.9356207221650382E-002   4.5797187623024129      H 
 atom   5.6396948400843785        1.7252143037410981       0.72046848787351281      H 
