 #            73 angstroem  -185556.19837692700
 lattice_vector   7.5589994404354401        0.0000000000000000        0.0000000000000000     
 lattice_vector   4.1821871273590947        6.2862283327374522        0.0000000000000000     
 lattice_vector  -1.6882942404841441      -0.91073293042895409        4.6965891919355327     
 atom   10.195804606333562        5.7639297551829776       0.49267228625880177      H 
 atom  0.11418620675846466       0.25198312454049582       0.87325404683734975      H 
 atom   5.5756860485984863        1.9736949870801917E-002   3.8248266630971903      H 
 atom   7.4555551966981657        5.6287430172977260        1.1590336968490864      H 
 atom   7.5363661491494280        1.5540907058315412       0.37377844040523239      H 
 atom   4.7410256523789593        1.4348045219678749        1.1590554418888488      H 
 atom   8.9282775031499586        3.7056657900923349       0.37544137255684196      H 
 atom   6.1284273736713306        3.5237353814828833        1.1623732702791512      H 
 atom   6.5967607120257430        5.1767611664098325        3.5169049360473124      H 
 atom   3.5127190138190962        5.0252847040815096        4.2926215739290825      H 
 atom   3.8806269011096144       0.96961614867700630        3.5157826527505773      H 
 atom   1.0839638920331351       0.85385761378744929        4.2917206551695708      H 
 atom   5.2783192046754612        3.0720037957384538        3.5039780816479742      H 
 atom   2.4830969796072191        2.9598441778720557        4.3063965760064820      H 
 atom   9.5027319849549237        5.3299641830534608        2.7564129480032116      H 
 atom   4.7013371501992260        5.4878113583129196        1.9155385871782340      H 
 atom   1.9210663689465366        1.3060382395645680        1.9543150077763660      H 
 atom   3.2957292864965395        3.3871082155697736        1.9717049372485302      H 
 atom   6.6517681432243769        1.1321245541082015        2.7571354591803345      H 
 atom   8.0824446299159298        3.2474170388055601        2.7408981264315178      H 
 atom   5.0356158753688032       0.21707920291471169        1.9373509299072744      H 
 atom   1.6280405545999954        2.4863574644655086        1.1253995725010304      H 
 atom   6.3922853923814555        2.3244646147204833        1.9559766489505976      H 
 atom   3.0606911494415496        4.5899705809375542        1.1416689499694330      H 
 atom   7.8096411617793411        4.4265904957078641        1.9029880188103809      H 
 atom   4.1990841020512768      -0.20880319734670136        4.3127362430654301      H 
 atom   3.0633937797355557       0.55711735777113447       0.37084204077181759      H 
 atom   5.5554326330221908        1.8437031195410518        4.2773113258232742      H 
 atom   4.4412344972814557        2.6095680997645672       0.36394495178306857      H 
 atom   6.9610486954321944        3.9895360250589351        4.2709062755918019      H 
 atom   5.8181467013198027        4.7676202496761908       0.37604349540768561      H 
 atom -0.61357792396712163       -9.7764579865083065E-002   3.5280957703744060      H 
 atom   2.2048083911970005        8.6621188045720027E-002   2.7162340195646997      H 
 atom   3.5923395962897242        2.1830675737704053        2.7468039616800342      H 
 atom   5.0122200057754842        4.2565372426778909        2.7244982487785432      H 
 atom  0.77645192373522021        2.0008824483301368        3.4605894371329100      H 
 atom   2.2126567897237868        4.0215778735680034        3.4065872642309296      H 
 atom   2.7845935070783274      -0.27253094392648541        4.6598203476528219      H 
 atom   6.9574817340885984        1.9703006646858690        3.8954851924938678      H 
 atom   4.1676044194266044        1.8106420013835307        4.6691236007459596      H 
 atom   8.3891866792443786        4.0672452354036093        3.9207198518777275      H 
 atom   5.5632829271337103        3.8949980340427981        4.6710101138935478      H 
 atom   3.6207421235916861       0.18949846715703320        2.2980591720607739      H 
 atom  0.81047724763980944        1.9447785097442598E-002   3.1268657575424905      H 
 atom   4.9779420422808363        2.3280218390852645        2.2562173671902821      H 
 atom   2.1849100621329893        2.1386182263803248        3.1188801582679773      H 
 atom   6.4079095125527257        4.3659658684744445        2.3060670944724113      H 
 atom   3.5947945077622370        4.2374624309209938        3.1462581490018215      H 
 atom   6.4403991952959547       0.32299026487687116        1.5344262468479601      H 
 atom   1.6352528144169398       0.46436612371983510       0.75965588138448570      H 
 atom   3.0449567004025164        2.5952553324390286       0.77834260147116219      H 
 atom   4.2852363154171176        4.9000359062069103       0.54828295914856839      H 
 atom   7.7869770358552763        2.4343118305278617        1.5526648676676671      H 
 atom   9.2228510056182973        4.5315118086175277        1.5564167730253506      H 
 atom   8.8954482160630590        5.7190516386530250       0.75045065301110947      S 
 atom -0.32005110327000458       0.75104349790545932        4.6852409528828067      S 
 atom   6.1382059950479819        1.5103068752622097       0.76601773578962840      S 
 atom   1.0807399160515976        2.8640106728069257        4.6726269624684766      S 
 atom   7.5121744927970227        3.6158855575716902       0.75361771840526426      S 
 atom   8.0405473518005621        5.2591870443368514        3.0919835418294417      S 
 atom   5.2363034375055282        5.1076604684098905        3.8931789572744306      S 
 atom   5.2662630915502477        1.0822888369875883        3.0894043396425772      S 
 atom   2.4732049717364277       0.92200555672510387        3.8947217961847458      S 
 atom   6.6771788030753152        3.1603208518328780        3.1127628013763955      S 
 atom   3.8743201044031790        3.0072424484704912        3.9089382756907090      S 
 atom   3.3224488814943540        5.4041565082282688        2.3424853107635362      S 
 atom   6.0908965722358355        5.5601266211728353        1.5377808048161716      S 
 atom   3.3182182014782184        1.3703745307101594        1.5492467549091105      S 
 atom   4.7084541066551440        3.4992114288083269        1.5318431429448189      S 
 atom  0.51612288154554919        1.2010838907841783        2.3118580296996449      S 
 atom   1.9096575788802321        3.3205781401922598        2.3192417009646098      S 
 atom   4.2817346347552023        5.8416205086334392        8.9888048296316664E-002 C 
 atom   9.3413235049305730        5.0713129799239809        4.1578889331001836      H 
