 # 74 angstroem -185556.305365466
 lattice_vector   7.2575618259000674        0.0000000000000000        0.0000000000000000     
 lattice_vector  -3.6045610484518242        6.1826054661974279        0.0000000000000000     
 lattice_vector  -1.6218739913362885       0.64240683794787146        4.9655441238726858     
 atom   2.2917359689566448        6.0624221320671365        3.3876360844128675      H 
 atom   2.4059243954980465        3.4671762115048983        1.5251304816366820      H 
 atom   4.4932253036963283       0.72118322121726819        1.0455714440974708      H 
 atom  -2.4215048943951412        5.9808618498533592        4.2627224037906100      H 
 atom -0.54506062907287056       0.85753994766872521        2.8792139746717660      H 
 atom   1.3151209676928475        3.5488533585626625       0.38065500588562534      H 
 atom   1.3038629608579129       0.93612522372738816        3.2358346923709624      H 
 atom   1.7428272114580023        1.9150044067141156        1.0654975601397532      H 
 atom   2.5298708652508797        1.7737624739682667        2.3354686795046380      H 
 atom  -2.0840132328586445        5.2841345538656315       0.20472770895731732      H 
 atom   1.1993538076179020        4.0769045557856423        1.3945463766072346      H 
 atom  -1.8717347689845911        5.5811400707639178        3.1614928752378506      H 
 atom   2.4153502399780735        3.3505838485047534        4.4920837785709757      H 
 atom   2.3539492057594664        4.5886040999384718        3.6332700055022986      H 
 atom  -1.9368319977265873        3.4760835572281814        1.2747985383814577      H 
 atom   3.7002622157847385       0.83320692075344527        4.9703929456817919      H 
 atom  -2.7266018648264332        5.9371599438300393        2.5039021070166538      H 
 atom -0.22948645151271341        5.4408655666634660        3.8268178989426147      H 
 atom -0.36400347181041848        1.8683139585928670        2.5202415350553924      H 
 atom   3.1263383498081803        1.0879798256911335        1.3611384718220800      H 
 atom  -1.9021049923142785        4.2788858324975969        1.4182057014378997      H 
 atom  -2.6640566023361369        5.1341337378569412        1.2735769937112515      H 
 atom   2.7882559099656792        4.2072185973893559        1.8640935390165101      H 
 atom   6.3983188756543283       0.89262929895679732       0.45114166437724640      H 
 atom   4.6366880977959353        2.4830775872099049        1.0051600793840321      H 
 atom  0.29954217904569452        6.2778595005528839       0.44325209283341838      H 
 atom  -2.4122211794470845        4.7758798861117251        2.8334115532800137      H 
 atom  0.86337759843114792        1.8130543491638087        2.4308613550005993      H 
 atom  -1.2765309318008953        4.6817905032198190        2.2247460484910522      H 
 atom  0.60286553626764217        2.9409673949996624        4.3870263633094302      H 
 atom   3.3515205927464859        5.3560487046359855        2.5744366681616113      H 
 atom  -1.2827945687212294        4.4446985276675939        3.9529894808037489      H 
 atom   1.7703153898953528        2.0159590201217674        3.9088539588537641      H 
 atom   4.6956995595321755       0.83752573324722868        3.9613335807027892      H 
 atom   2.7146416788268382       0.91085616818194504        1.6367777830524358E-002 H 
 atom   4.3053539650308732       0.41908286142265516        2.7586942722289511      H 
 atom  -2.1663232547883142        3.3626851001118752        4.1563340721032125      H 
 atom  0.15688178191508859        2.3639300794625693        3.6078121424890472      H 
 atom -0.47535734298680443        3.3064803714643802        4.9003653182653180      H 
 atom   2.4900690225601636        1.8932761554441273        4.9886750968105300      H 
 atom   3.8984195737730216        4.0661173414318466       0.51809742482321408      H 
 atom  -1.7728593102128956        3.1324827114219111        2.7552615325152776      H 
 atom  -3.3638458704752510        4.7531278457812913        1.3838246370478524      H 
 atom   2.2051956551537462        4.7001481692995286        2.7202940898684171      H 
 atom   3.6275247548800285        2.0269595962824396        2.2913531458887419      H 
 atom  0.92409802861286539        2.8780470444829027        1.4341811309564541      H 
 atom   2.6279920074368293        4.8617270246652478        1.0415528281297208      H 
 atom  -3.3688750022769103        5.8004396851238660       0.15337285748139204      H 
 atom  -3.5744445245657284        5.5854184147829873        3.5140423823007336      H 
 atom   2.2220212388884617       0.55608794962657393        4.5163502672686313      H 
 atom   3.9621313618207843        3.3336389115547291        1.4975047504301691      H 
 atom  -1.5412049700691151        1.8007823334810720        3.2901917321783225      H 
 atom   1.6030435741172648        5.5942475060753676       0.35405809867073490      H 
 atom   3.6499328214921611        2.0731132581352494        4.2008788848732177      S 
 atom  0.21031744567950425       0.94980068121425021        4.1343405712443531      S 
 atom  -1.3938877429156993        2.3130736940777288        4.6281772782653627      S 
 atom -0.85544841621002199        6.6012292637099854        3.2412186897655664      S 
 atom   3.0279819730913795        2.4125474487468797       0.55158968060904690      S 
 atom   4.8955324595980008        1.5425574377314490        2.0629403495075231      S 
 atom   3.3680287273395373        4.5833088403281872        4.5660022963273716      S 
 atom -0.47240963601668823        2.6276310489960335        1.3379105113898586      S 
 atom -0.49236278205608258        3.7566301257999277        2.9486222553170154      S 
 atom   1.7994061621964301        2.8626969999310434        2.8778079043059441      S 
 atom  0.81070551754545284        4.9434953375879074        4.6479063614193112      S 
 atom   2.6803158789564616        6.2886831108573729        1.6279208150432447      S 
 atom   4.0521987948740383        3.6474921871545605        2.8969250317268118      S 
 atom -0.32920833865856303        4.2679603372679535       0.12099503723881000      S 
 atom  0.91981600819896236        5.1580369576188181        2.1787704825257119      S 
 atom  0.98885460987612606       0.66851841176680127        1.4312798299780720      S 
 atom -0.83332627962383388        5.8964259524622422        1.3493845754993836      S 
 atom   1.7209475273890968        6.2334977725094545        4.2395570314568003      C 
 atom   5.5977714170757018        2.4110388100752522       0.22840686771166055      H 
 atom   1.2026166179039111        3.9898875507180831        3.6904790480842635      H 
 atom  0.82202410084771327        4.9944598561179863       0.28181936374306588      H 
