 # 72 angstroem -185543.754588031
 lattice_vector   7.5113507354348874        0.0000000000000000        0.0000000000000000     
 lattice_vector   3.3157462250631808        6.2363393529232471        0.0000000000000000     
 lattice_vector  -1.7335651287103606       0.91612022031956719        4.7145558213104435     
 atom   6.8459304009073163       0.69800917385194661       0.28331525078731085      H 
 atom   3.9861045173077887        6.2221440618197281       0.91319157715782406      H 
 atom  -1.0507601869013530        1.4330746792041054        4.0665756245404818      H 
 atom   5.0256764954354987        3.1000663857396238        1.1279690697227529      H 
 atom   1.6337814229382113       0.90294420480622395       0.34823411243310853      H 
 atom   7.4922595202496902        3.1512736225191622        1.1594950187996587      H 
 atom   4.1858615157332117       0.92890554489714006       0.37167747282696956      H 
 atom   2.4927943959852290        3.1475574124207686        1.1498353216241535      H 
 atom   4.0888457493744319        3.6647568541929347        3.5289143530103981      H 
 atom   2.2748359214641214        6.0682263638541309        4.3738761153310461      H 
 atom   6.6135594054546187        3.6135981463372069        3.5067433117675639      H 
 atom   4.9379804123814779        5.8457615226675417        4.2795401116561314      H 
 atom   1.6126427934376826        3.6075270590067947        3.5042479515419607      H 
 atom   7.4851125089476938        5.8651088871771551        4.3098390566635505      H 
 atom   5.8199908101592603        1.3739980414039508        2.7693441743514575      H 
 atom   3.3018454716625549        5.3883407107244823        1.8885886524175870      H 
 atom   5.8216723132604251        5.3860982021030281        1.9403796221058198      H 
 atom   8.3155031345983836        5.3915442600083026        1.9304078155463971      H 
 atom  0.80322774356486770        1.3742615945637751        2.7280642891257298      H 
 atom   3.3013052476043914        1.3860498844189513        2.7147897816568594      H 
 atom   6.6556745804389319        2.2624023170026959        1.9334851722319759      H 
 atom   6.6981392795330930        6.2888927963250403        1.2000065008974892      H 
 atom   1.6483580177832411        2.2743982978143715        1.9408120009119207      H 
 atom   9.1926210101754258        6.2550595697517819        1.1206923763182908      H 
 atom   4.1664255992605819        2.2612470967756275        1.9253882711818548      H 
 atom   5.7977093828161488        2.6783857111099412        4.3020732109135773      H 
 atom   5.8465421473702337        4.0302932967456648       0.37072537830206687      H 
 atom  0.78837240384401674        2.7208313487433449        4.3001645204436221      H 
 atom   8.3343661136092670        4.0452467860962287       0.36342314737844267      H 
 atom   3.2831412620725255        2.7379000257509554        4.2881681225291155      H 
 atom   3.3243215063934453        4.0857855354107153       0.36163580668109691      H 
 atom   3.2454658982023328        6.7470949768057755        3.5403125704941312      H 
 atom   4.9605512178057092        4.5080753631860659        2.7307515891754610      H 
 atom   7.4780817344952970        4.4922369106508881        2.7228606089685687      H 
 atom   2.4674571414303172        4.4992123823441084        2.7314431902538181      H 
 atom   5.7488490659200826        6.7132022843989683        3.4502656096773836      H 
 atom   8.4512582216236307        6.7799541031017219        3.7438436723194601      H 
 atom   4.9480134907202205        3.8453419704487732        4.6811251169597101      H 
 atom   1.6225343703131618        1.5971802751482789        3.8850362234138278      H 
 atom  -6.1310124588160549E-002   3.8423409937307058        4.6826514191719202      H 
 atom   4.1665778364868231        1.5908929006409940        3.9174611382650411      H 
 atom   2.4377376253478245        3.8352258986346803        4.6827231059720722      H 
 atom   5.8142432034177709        3.3751036711012654        2.3113286495855196      H 
 atom   4.1151642143502345        5.6235045776458330        3.1146247002124010      H 
 atom  0.80646075796920014        3.3839944903424168        2.3257608296228942      H 
 atom   6.6243327289028962        5.6064851676982705        3.1109366530538076      H 
 atom   3.3047013385419612        3.3847676344521695        2.3338820422833697      H 
 atom   1.6218116697867908        5.6472114308400112        3.1455778840976198      H 
 atom  -1.0829814264878699E-002   1.1207826066794673        1.5091990993349791      H 
 atom   4.9547031874886294        5.1725655368383228       0.74190863888963521      H 
 atom   7.4942836071132390        5.1612863739722243       0.76397546300759533      H 
 atom   2.6623092269719915        5.3338765566403765       0.58919134992041577      H 
 atom   2.4968374062942660        1.1564120481587512        1.5449688368140502      H 
 atom   5.0065854533551031        1.1422494191202881        1.5436430303166668      H 
 atom   5.8716795598892171        1.9898285424111122       0.74639821627509340      S 
 atom   4.1029234206622718        6.9633053789658792        4.7056169427702113      S 
 atom  0.82963281742326034        2.0363768306005117       0.75602862847969676      S 
 atom   6.5989423401574978        6.9557088780956899        4.6699335953212424      S 
 atom   3.3301276362715404        2.0384428117693170       0.75581150637269978      S 
 atom   4.9632910208441086        2.5072650373442529        3.1228780111329066      S 
 atom   3.2513085268990616        4.7764809541541480        3.9123612250184094      S 
 atom  -5.7797031273378777E-002   2.4721232696901843        3.1281002378304597      S 
 atom   5.7915145704572497        4.7284074217181944        3.9038235793513683      S 
 atom   2.4702696309284393        2.4937121170085037        3.1205534334765503      S 
 atom  0.78100491220720270        4.7320730427844424        3.9025502417436919      S 
 atom   2.4648419070545278        6.5003519118191369        2.3280700504353131      S 
 atom   4.1589957323869484        4.2571368779393159        1.5350436560775296      S 
 atom   6.6520092118977425        4.2739156805706129        1.5424745804583035      S 
 atom   1.6678895335149000        4.2940173041445933        1.5318397971655822      S 
 atom   4.9284177724165650        6.4909312591512398        2.2826558282783265      S 
 atom   7.5089579820334063        6.5122443366469200        2.3749000968204275      S 
 atom   1.5960777798866628        6.9591356594601610        4.6862258688180498      C 
