 # 73 angstroem -185553.461255674
 lattice_vector   7.5758461088153188        0.0000000000000000        0.0000000000000000     
 lattice_vector   3.3668218921916360        6.3064745328268108        0.0000000000000000     
 lattice_vector   1.6808211506704531      -0.88531875412529193        4.6851284778836444     
 atom   6.5613526235702180        2.6183251904616371        2.5109935926499740      H 
 atom   3.8579485570988186        6.1771040153349039       0.53049207336126514      H 
 atom   5.3356803315590371        4.8919144711362836        1.7034746001307433      H 
 atom   7.5486917754228235        2.3306746759873476        4.0464876094453732      H 
 atom   2.7682950829014774       0.16470490054340636        4.4586690091094265      H 
 atom   8.0691525196159013        2.6871511242638548        2.1003927061138952      H 
 atom   4.7005399817243445       0.45708189486319872        2.9486919286530169      H 
 atom   2.4865690951728467        3.0366936910420699       0.57614734249334998      H 
 atom   5.6841748638050111        2.4014241913617242        1.3766723955002005      H 
 atom   6.7494513004551759        1.0587934407772639        1.3801620145781417      H 
 atom   8.9546828496383348        2.2410753694582550        4.3785091896210995      H 
 atom   6.7164764609623431        4.8178062449458769        2.1267560678870980      H 
 atom   3.5721518369157335        3.7925464487831975        2.0702797713071863      H 
 atom   8.7118950402758397        5.1480999185284979       0.53048305275865781      H 
 atom   8.8435984356594517        1.7334312220553462E-002   4.2755712582779379      H 
 atom   9.8284554847010366        5.8506503774198118        2.1140717994412879      H 
 atom   7.5236838732408415        4.4494137447258106        4.5630482593435708      H 
 atom   10.919793997191046        4.6163762319124375        3.3008195896769781      H 
 atom   1.6582402320338465      -0.51944456125685168        2.8980152178096517      H 
 atom   2.5204090811443751        1.0171234450825917       0.15836304980233504      H 
 atom   6.1115331821050107        2.4513813457488589        3.8096807128780164      H 
 atom   7.7441092983599562        5.5592684323316206        3.6960818376889839      H 
 atom   2.1807715545756006        1.7599431947595483        1.3916574367322614      H 
 atom   8.1512110492954015       0.67644616470862751        1.7030615724113973      H 
 atom   3.9085634379470346       0.90691527112065295       0.58855852705196010      H 
 atom   7.0223643680978896        1.9476666955152906       0.49778158806134748      H 
 atom   6.3985991018764246        3.6965116156175029        2.8689483686407389      H 
 atom   3.3427318052516775        2.6077285768804419        2.8890913609235187      H 
 atom   8.3874413259351215        3.9306720022889010        1.3496304540406208      H 
 atom   5.3426102460315539       0.83161508652432536       0.89075875216072253      H 
 atom   4.7715265250801417        2.4784039754337970        3.2529871362352067      H 
 atom   5.0998439774100310        3.1835978365635471        1.4465057018274405      H 
 atom   9.2572595920181158        3.4955884037097080        3.6808813102466189      H 
 atom   9.5245555721455535        4.6897713517053443        2.8972353248949569      H 
 atom   4.4825492217263347        3.3482988057835308        4.4640256321527971      H 
 atom   6.9304056086643788        6.0362684068750427        1.3035001928392997      H 
 atom   10.504112437093513        5.3964496281696421        4.3857821663631000      H 
 atom   6.8107937018302911        2.9033874476737442        1.5193769369893639      H 
 atom   3.2472046443276215       0.55990290141105037        2.4932567032522184      H 
 atom   8.6361922568961411        3.0867958827652582       0.18358884029826095      H 
 atom   7.6287999097293255       0.22442518532781830        3.6729632740543994      H 
 atom   4.9772303600136762        1.6534115843518362        2.1206583937478527      H 
 atom   7.8171082597881565        1.5242165320982219        2.8716683586789382      H 
 atom   5.6005356031841558        4.0219908918798426       0.54687779183584517      H 
 atom   9.4840682652014756        2.6118527558663440        2.5670025373015211      H 
 atom   7.2830165130359230        5.3363163483788663        8.5300850117180804E-002 H 
 atom   3.9119599112407877        2.9291679007130074       0.93534331781380575      H 
 atom   4.5480870827681352        4.6844039332513399        4.0113269067639328      H 
 atom   3.8895014013636917        5.0106983425029874        1.3159817078506750      H 
 atom   6.1372928144583483        4.5001753745500483        4.0901757380051063      H 
 atom   8.1281836382131836        4.7550109231501514        2.5090061896877369      H 
 atom   10.086744319757500        4.8957242210312284       0.98764223132871953      H 
 atom   3.0608371167011077        1.4168190083114676        3.6922686962163196      H 
 atom   5.8446025983899048        1.2069633717904091        4.4924892952266537      H 
 atom   6.3820370245086790        1.2937586879787679        2.6352179971071990      S 
 atom   6.4100952760990690        5.6765015358989412        3.2891394139446923      S 
 atom   8.3997818204763011        1.8959406708621058       0.95045487947959106      S 
 atom   8.3437519633346060        5.9468981671447896        1.7428731883070252      S 
 atom   4.4395859121559011        1.3097334958666045        4.0828294305456518      S 
 atom   5.6005737233781963        1.9812974976057776        8.4290071194334210E-002 S 
 atom   4.9884561725793644        3.7888729789024409        2.6254899492841828      S 
 atom   9.2304539766545179        1.3923274490419844        3.2541515700390318      S 
 atom   7.0052322078676621        4.0543410779925875       0.88772129883620954      S 
 atom   3.6169974659641015        1.7506787391398122        1.7294236043330573      S 
 atom   10.633413753615946        3.4165404236478096        4.0741155838932981      S 
 atom   11.220502132259480        5.7910781891116176        2.4777070371602359      S 
 atom   4.1872013881404158        4.1647945260695831       0.15386164247798390      S 
 atom   7.8346196198940037        3.5766851879194541        3.3178160274515549      S 
 atom   9.7781184287899539        3.8344004180060267        1.7371982152590952      S 
 atom   2.1732392809782151      -0.17590412948375342       0.99708833835445920      S 
 atom   5.8672365065044323      -0.71967393861961082        4.0212741390296767      S 
 atom   10.487350585324364        6.2840609929196294        8.6143254164034802E-002 C 
 atom   6.3669646541340734      -0.10784118361081263       0.79244664345079230      H 
