 # 72 angstroem -185535.900950535
 lattice_vector   7.4485799522669911        0.0000000000000000        0.0000000000000000     
 lattice_vector   3.3432960775127434        6.3338526933033856        0.0000000000000000     
 lattice_vector   1.7164255510305584      -0.87415619597369809        4.6789916121368371     
 atom   7.0833825663358025       0.72655223618690745        1.3407521911039428      H 
 atom   3.9861070612199385        4.6816455036071201        1.3005565811395405      H 
 atom   8.0535064149014559        1.4654576752798654        2.7200204103393073      H 
 atom   5.0592984527732066        2.3466285705685364        3.2321988807411475      H 
 atom   4.6348883475608682        5.7059922130399885       0.47607662880797641      H 
 atom   9.4301282722839925        2.6125343214579022        2.3245095569272598      H 
 atom   5.0397632287589484       0.35575640121612939        2.7629102269214796      H 
 atom   6.6668850984514973        3.4601751002738070        2.7773543834370686      H 
 atom   7.8138116350656110        2.0316471573264612        3.8549483998027414      H 
 atom   10.810108004738277        4.0766261354853262        4.0417975793918988      H 
 atom   7.2773686826257444        2.5852809000330863        1.5349789516946462      H 
 atom   8.4523603602660859        4.6895182438998209        2.2426973317655610      H 
 atom   2.7935104130548143        2.8444899747200001        1.9278334093653655      H 
 atom   7.7238731705204478        4.8923865887319948        9.5102868974580160E-002 H 
 atom   7.8414906994634208       0.27650433679767256        3.5690713617629903      H 
 atom   9.7363278800002107        4.3987902095514269        2.8767074977897953      H 
 atom   5.4822847019295020        4.7174004070917466        1.6657836567778874      H 
 atom   3.8209058555822226        3.5942841059303374        2.0594922793775470      H 
 atom   2.5129294550031429       0.90096259940811929        2.6911970251093718      H 
 atom   5.6581173654125330       0.66463346821170455       0.77856100154029950      H 
 atom   10.472481973781580        5.3820354110572257       0.77430585820167463      H 
 atom   8.1681722014665326        5.2881498678055037        3.5688533529867059      H 
 atom   2.3790877281297180        2.0310265614835945       0.72527955622146367      H 
 atom   10.025308426882773        5.7525832010613627        2.0081626729188677      H 
 atom   6.4701933192608738        2.3699489580791573        3.5586736673923816      H 
 atom   7.1552257140888109        1.9262219726036169       0.45360137083615854      H 
 atom   5.6046273314681070        2.8652413074389540        1.2427939422920269      H 
 atom   3.5960257987815938       0.33743464187506983        2.3930986318488543      H 
 atom   6.9891025929349322        4.7855092729540205        2.0273240701461721      H 
 atom   3.8398714558879345        2.7608182918760611        3.1132620446692791      H 
 atom   4.7742611900251379        3.1605727965326893        4.4826314652763353      H 
 atom   5.1363931262008586        4.6399989819071816        3.8330667097843882      H 
 atom   6.0826629361304230        1.1284717436055796        4.2962083020292905      H 
 atom   7.4080661273930604        3.1011994628802975       0.13764660417963964      H 
 atom   10.478834238786256        3.8111434517597451        2.4956411591668277      H 
 atom   7.3387164309367074        5.8857013996435334        1.1464064460566901      H 
 atom   8.9738463185693824        5.1277933801637285       0.44337690288055659      H 
 atom   8.2471007692345406        2.4687812561440285        1.3236452710915323      H 
 atom   5.2988412305847321        1.5923651201097448        1.9512745105494305      H 
 atom   8.1353644116316737        3.9615682137760362        1.1438405919944969      H 
 atom   11.197380069408036        4.6949744707758185        3.1428407364877247      H 
 atom   4.0588714554748941        3.7757096113427049        3.6984107874676870      H 
 atom   8.9246410659670676        1.7753630080153247        3.4870899475680042      H 
 atom   6.9111890423116575        3.7605096983965249        1.5440768175689690      H 
 atom   9.0410529989761308       0.44804781787831477        3.4931960561347166      H 
 atom   4.4169626290414037      -0.10745285823091121        4.5885324672186050      H 
 atom   3.9807248454645006        2.8573799777985927       0.82051153963221746      H 
 atom   11.288631807306626        5.4867730073973267        4.4006319470675086      H 
 atom   5.3912250431548880        5.6453343165243881        2.7297441095807242      H 
 atom   6.5648202273597045        4.2876236338735509        3.8943260431890114      H 
 atom   9.8287275642119027        3.3614980307261515        3.6989304407584855      H 
 atom   9.9131986563800361        4.4767233491018530        1.6837557719991476      H 
 atom   4.1102660076196749       0.82000505660415846       0.44471709260688980      H 
 atom   6.4352321304032643       0.30141394846162733        3.1314398253156015      H 
 atom   6.6600035123761048        1.4991245513992641        2.3578456170127295      S 
 atom   6.7748311539850894        5.4884955776448070        3.1396533775502995      S 
 atom   1.6131432270049759        1.1970204794845067        1.6453137530904385      S 
 atom   8.6580894115323819        5.8898064937467920        1.5852661747949779      S 
 atom   4.7220739244261614        1.1242116474161927        3.9122632497839236      S 
 atom   5.7334195200198348        1.9284048368963318        6.7335473849404734E-002 S 
 atom   5.2666036143874289        3.5761143675716318        2.4440426967947024      S 
 atom   2.4072795360967558       0.20606600076612192        4.5501902683863200      S 
 atom   6.5597308103221446        4.2008957861395695       0.24657459755756203      S 
 atom   3.9116311916444717        1.6082406025616967        1.5975835962957474      S 
 atom   2.8527194687880351        2.0709847860683839        3.7374526432828117      S 
 atom   11.439508166875244        5.7429498968463806        2.3536526297728226      S 
 atom   4.4315745788514231        3.9805027310537198        9.2386502187580058E-002 S 
 atom   8.1584307770050444        3.4225835857409828        2.9847376345927765      S 
 atom   9.3870996447553985        3.5894078170973542       0.75586080829360647      S 
 atom   5.9034303705804438        5.9798118398102469       0.80992853801136067      S 
 atom   9.5585798452431092        5.4330950666437809        3.9263301830148971      S 
 atom   10.553391066857824        6.0769270960857371        7.8857417123399526E-003 C 
