 # 73 angstroem -185544.278585794
 lattice_vector   7.3956608109214255        0.0000000000000000        0.0000000000000000     
 lattice_vector   3.7925988653682414        6.5239759923704375        0.0000000000000000     
 lattice_vector  -1.6926989892118292      -0.58812749470806780        4.5765574903962678     
 atom   5.8374561311128987       0.17604136568161885        1.5732849991358204      H 
 atom   6.3502876361367990       0.45067510985194048       0.15723850611346615      H 
 atom   8.2746139864206114        4.5148004616305082        2.5348026603680731      H 
 atom   2.9015923498308127       0.79979312748587661        2.2876210988353338      H 
 atom   5.6027124218991231        2.4143342764329585        4.4601917768378998      H 
 atom   1.7522297091791312        2.2696856131467751        3.9862252728902807      H 
 atom   7.4599056389797882        3.0824800346127450        2.4466355102691972      H 
 atom   6.7159718050561992        4.0145017968241437       0.16040765265019402      H 
 atom   7.6206132616241531        5.7392550562985685        3.8433822458188294      H 
 atom   2.8390734536535196        3.7269775709667128        1.9590650846383562      H 
 atom   3.1044729486734837       0.18988266305713175        4.3851224184126947      H 
 atom  0.41749696581233914       -7.1681860673552204E-003   3.3998454942182517      H 
 atom   4.7800794838390654        5.4772800243039796        2.6217288433845436      H 
 atom   3.3154395266747545        4.6774925172965691        4.5280218653728221      H 
 atom   5.3268392019750923      -0.27963547718712761        3.1865826194911588      H 
 atom   3.9903524531476662        4.8880193313904101        1.3150955414531444      H 
 atom  0.49277954579249256        1.6095786455927459        2.6791161843649642      H 
 atom   2.5499175540739394        2.5357675150902428       0.96972328530960372      H 
 atom   5.5528536026631929        1.5230882017901020        3.2274573617086526      H 
 atom   7.6892505695924811        2.4668363083713882        1.5700546841347796      H 
 atom   5.0806175969420977       0.69380655417298054       0.70590891573081327      H 
 atom   1.4691478476624893        1.2577278476041900        1.2711793433677041      H 
 atom   6.7459629751652761        3.4359913813656737        1.1387070632155338      H 
 atom   3.8526440489575671        6.0219440135842923       0.62730220428294237      H 
 atom   4.4742874013853964        3.9850543434019765        2.0788396590806095      H 
 atom   6.5054814806391663        3.8740320517713265        4.3072990768286976      H 
 atom -0.75806924578254231      -0.25843421238679343        4.5412540333661475      H 
 atom   5.0308398231900657        1.2840311297637585        1.8113242713711466      H 
 atom   3.6589421689672057        3.0127458706559809        1.2105953980334290      H 
 atom   2.4767218536514917        4.1340352520432440       0.68792622453034125      H 
 atom   4.5432534615101332        2.3053684117459086        4.2677448533024505      H 
 atom   5.9338902125984196        4.5030686368148967        3.2462518285884809      H 
 atom   5.4246901679125772        5.6681892168902621        3.8329175144639018      H 
 atom   4.5987382648583361        2.1796529160937332       0.31983660996168900      H 
 atom   9.6755270045615696        5.3855701505729572       0.64321399962828374      H 
 atom   7.5453822984062224        4.0863955323177521        3.7522670418348540      H 
 atom   1.4517026302249405        3.6974183892247940        2.9787531143289723      H 
 atom   6.5891791243680613        5.2264516548230340        4.4071513380055594      H 
 atom   6.4080468413793170       0.60095459597936163        3.3653658572047838      H 
 atom   6.8442487112014705        5.3459463685631734       0.64364900975267592      H 
 atom   8.0571679213373191        3.4442469270059846        3.8254721992483174      H 
 atom   5.6917055177068221        4.4961023483811191        1.1762220711219682      H 
 atom   2.9506147492448522        1.6962147469533662        3.9661523091355022      H 
 atom  0.24705325947655232      -0.36079021289563418        4.1990616762259965      H 
 atom   5.2554291574732988        3.8876613148682595        2.1060282483231845      H 
 atom   4.4730995770638620        2.6703392228291936        1.8777177245390937      H 
 atom   5.2501643697177522        3.7064309656373657       0.49386949355319615      H 
 atom   2.5084287344177714        4.0797878479655312        3.5710562176502809      H 
 atom   4.2318794858366520       0.89531022852259123        4.3111983213554712      H 
 atom   2.7664818158484237        5.7304408410482726        3.7331834864263564      H 
 atom   3.8598349084195496        1.7579510785364070        1.0913396220673073      H 
 atom   8.8261001794745795        4.9308594802972587        3.6813878106031956      H 
 atom   1.3607090744823029       0.57989443106365457        2.1966681880667118      H 
 atom   6.7779902199559281        4.2256363584572512        1.7379826198509305      H 
 atom   8.0672817688544995        5.9894775113860197        1.1392693373903318      S 
 atom   7.7193280851741086        1.5699644066818854       0.43521696735755461      S 
 atom   5.7746000338810664        2.3046341289945809        1.1573216828331516      S 
 atom  0.23839509871780196        1.8799287026038967        4.2057419807392105      S 
 atom   8.4645347576011858        3.9567569165173482       0.97492638323368630      S 
 atom   6.9957692654902246        5.2456973177306718        2.6918969394145051      S 
 atom   4.5653539208964684        4.4155716822359992        3.8782050451379924      S 
 atom   4.4227916285078992       0.66831324344138243        2.9542235407785657      S 
 atom   2.0217810754999053       0.47439575748239438        3.5153482939072980      S 
 atom   6.2110259504797991        2.8156432208474511        3.0445953165902084      S 
 atom   3.7434990837248319        2.6108749189533249        3.1376205564028816      S 
 atom   3.0099968833614574        5.0067067792935402        2.5292034546413680      S 
 atom   5.3263091804243228        5.8190966890010412        1.4384196765776949      S 
 atom   2.8950350904717661       0.83679447204676671       0.83851549090230892      S 
 atom   3.8757892033533223        3.9559615751654058       0.22534741781850831      S 
 atom   7.0125139339726212       0.55236878832339842        2.1524184495500638      S 
 atom   1.8839693257466286        2.5041459448086942        2.3375829361942047      S 
 atom   10.346581397831958        5.9387054402554558        6.2199464311704228E-002 C 
 atom   9.1935946483740878        5.4426149213388975        2.0689541865295649      H 
