 # 71 angstroem -185518.236820463
 lattice_vector   6.8494717520761821        0.0000000000000000        0.0000000000000000     
 lattice_vector   3.2196057632391799        6.4663828252446436        0.0000000000000000     
 lattice_vector  -1.0346102777556354       -1.3021169864586870        4.8574133107649544     
 atom   4.3574665923696632        4.6612906088097059        5.1457047742090979E-003 H 
 atom -0.10127656073230505      -0.42889998366682980        2.7836839397711675      H 
 atom   2.5160392040349340       0.27766100120988685       0.25628862828004190      H 
 atom   3.3637304490178055        4.7871883677094118        1.3142665990983842      H 
 atom   5.0516616567206247        1.5745877878456811        2.8678962794545413      H 
 atom   6.1138145715045944        2.4247574509414820        2.6995124288673473      H 
 atom   6.3635940845576027        5.5231659365462864        1.1353720411177330      H 
 atom   2.3512164716976831        2.0087058593298011        4.0187354610554769      H 
 atom   2.4665049254824183        3.9733305275244901        4.2450055717393260      H 
 atom   4.5575227880904885      -0.58087510426154609        4.7949428139340027      H 
 atom   1.1411153141940267      -0.53610169821014364        4.0695374751021278      H 
 atom   7.5974972303369652        5.0700967641636847        1.4336860496592765      H 
 atom   4.4855598828176824        1.7202386086990404        4.4040059725186271      H 
 atom   5.6187587666190177      -0.12589593817458142        2.2719071850797876      H 
 atom   3.7029659700970687        3.7537873778472712        1.8810341902202352      H 
 atom   3.8191869320158109        1.4157460615791726        2.7503602633473863      H 
 atom   2.5768613785734868        2.4429833533516421       0.10034444126335286      H 
 atom   6.7776359470968410        1.3496005665231472        2.8623848308265352      H 
 atom  0.84393354982093738        1.8418388624424515        2.1809478926266355      H 
 atom   5.0471118872199066        1.1744071094439552        1.5752242498898068      H 
 atom   3.2789181327140935        2.2997967482833443        1.4649639470250733      H 
 atom   5.0924326675543101        2.3586560410881736        2.0895605218513822      H 
 atom   8.6211986172333361        3.9780701455786756       0.88713116697960259      H 
 atom   3.4616505321528486        1.0076301437684827       0.94787435119288488      H 
 atom   4.8526958171496686        2.8513930615995140E-002  0.60667974600947849      H 
 atom  0.33709107103583402       0.25588094703156689        4.3505236475727616      H 
 atom   5.6379899465391565        2.5204090847651335       0.55500323890600767      H 
 atom   4.2194912307775612        2.9707402474220235       0.43374188560611715      H 
 atom   7.5218924194674921        4.9765608421484515       0.17380725165198449      H 
 atom   6.2543628752185629        3.8120047144687192        3.3978244772951687      H 
 atom  0.48512770650616743       0.35406444542567705        2.2278861944688502      H 
 atom   2.3718344015343793        1.0458170055898099        1.0909878965488753      H 
 atom   4.0095589069384889        2.1034585579325817        1.6661268669088685      H 
 atom   5.5825996421910142        5.3458235533941707        2.9529537433967503      H 
 atom  0.96823929391479036       0.82436032481180277        3.6471162259455543      H 
 atom   8.9663083486836985        4.8883185421995137        2.7392785079815472      H 
 atom   4.9693659740323364        1.5480841870643021       0.67124500569147505      H 
 atom   4.8940039429609872        3.1872378689637477        3.2665811493967185      H 
 atom   6.0006457342500426        4.2500597659374106       0.24239692775400443      H 
 atom -0.68785874206473585      -0.91033430826025696        4.2811114769810557      H 
 atom   4.8412079805127393        3.8715070310188393        4.4540792696069067      H 
 atom   4.0596289033987105       0.49905119254440278        3.8017847889936331      H 
 atom   5.0023403722402078        4.2146347755440949        2.7875673321881869      H 
 atom   2.8314650551473055        3.5053534483734099       0.54798595107862935      H 
 atom   2.4003454921284066        1.6692627200538013        2.6033895005462311      H 
 atom   6.1574243062589593        5.0113825133147634        2.2469351646502713      H 
 atom   4.2326147066229396        5.3224443968751496        2.0672625933666100      H 
 atom   6.4948639252021172        2.3553309978177044       0.95143286487582335      H 
 atom   5.9890601254843574        1.1048318667596293        1.6349540357344923      H 
 atom   3.4726553617064151        3.9550814996139474       0.42351363217911808      H 
 atom   6.2297024460076518        1.6153884915998782        2.6457062498145677E-002 H 
 atom   6.5112021540178766        2.1804911381119925        1.8994260300611523      H 
 atom   5.7997904529389483        2.7604513812889722        3.5854513707068305      H 
 atom   5.9578112031553019        4.8611399975833356        4.3501185075679087      S 
 atom   1.4374819784042876        2.0016802743327746       0.87933475274706252      S 
 atom  0.17955827686630269       0.47895397868909328       0.82039796009268895      S 
 atom   1.0061111526330375        2.4408646576523219        3.6832409803061541      S 
 atom   7.2757458002935991        3.5618942740480022        2.7605990929589326E-002 S 
 atom   7.7885896433271586        5.2174989234477431        3.5008269918129677      S 
 atom   3.6894466545821705        4.9035788505526323        3.4141647509542459      S 
 atom   5.7893897475708309       0.66240353678653863        3.5852927008787279      S 
 atom   2.8506197490694616       0.43779735227053018        4.5406289001448910      S 
 atom   7.0634525231937273        3.8675739739494146        2.1125896425881909      S 
 atom   3.6955864144176922        2.5778784129585608        3.6385308031516077      S 
 atom   9.0327494571274780        5.4391906632828420        1.0877256634376780      S 
 atom   4.9124691570289478        5.6841976614885148       0.85595029332046302      S 
 atom   3.8766035498382179       0.12198386000674989        2.0145858980413918      S 
 atom   5.0677375695650486        3.6380498603475080        1.4627844839575976      S 
 atom   2.0007814201081606       0.36964425413591123        2.7136237249133548      S 
 atom   2.3344335093640503        3.3248809135845949        2.2592729139768171      S 
 atom   8.2529815522018879        3.8858735878155382        4.3348815837071424      C 
