 # 75 angstroem -185567.544630894
 lattice_vector   7.1139972185281337        0.0000000000000000        0.0000000000000000     
 lattice_vector  -2.5438023232631037        6.8380471535500114        0.0000000000000000     
 lattice_vector   1.5126365800955344       0.91964612933714873        4.6009510142435417     
 atom   2.6770504337838386        4.7218109248214883       0.23858197188299646      H 
 atom   4.9220326640671077        2.6152478719610577        4.3978705897937660      H 
 atom   4.0959099125916305        3.9585795505710464        6.2502745172314494E-002 H 
 atom   2.0209355421482402        4.5231578010260014       0.62093901642872984      H 
 atom   5.0688916969183877        3.1194334072011372       0.92714358753337667      H 
 atom   4.8921230481364288        2.8002458847597458        2.8113041422867848      H 
 atom   2.1103678101486087        4.4355801157079542        3.2435429561542626      H 
 atom   6.0202663604815951        3.0673667351680916        1.8360171196557398      H 
 atom   2.0407241266620444        5.3455671798231217        1.7338316254346278      H 
 atom   7.2216282293636160       0.49465357717360703       0.99420125218172672      H 
 atom   6.6855474604194089        2.6757670436996932        3.5124676084153519      H 
 atom   2.3313640032153931        3.0354788629296787        1.3410938232628911      H 
 atom   1.0230261798062246E-002   2.5346131904435638        1.9913226181319130      H 
 atom   4.5112313792884207        3.7935851317335745        1.9436962060246377      H 
 atom   3.8359318516461958        6.8980331698337611        4.4166115623160556      H 
 atom   1.3945489537741780       0.88536184157825348        2.1298342690102987      H 
 atom   3.6831708400376781        1.9179905422569397        3.6611709017034197      H 
 atom   2.6228740508402932        1.4250273991440361        2.7893785294315681      H 
 atom   5.3018898848800795        6.6261567232224552        4.5660092261535485      H 
 atom   1.2775563777701566        3.5807959441373374       0.60608522653865760      H 
 atom   3.1603831586220283        1.1677935903526919       0.95354522359041960      H 
 atom   1.5400688759898744        4.9005378391195391        2.9529517908096854      H 
 atom  0.44197883154572531        2.0600521095859676       0.85974604951718459      H 
 atom   5.5170401336363675        4.6218724726441289        1.9124367228153067      H 
 atom   1.2688328039069869        4.6452340074754828        1.6741074415109538      H 
 atom   6.0076755268599209       0.60762452348222828        5.5436166704782346E-002 H 
 atom   3.2595805749019480        2.6525323724600316        2.1415519594181220      H 
 atom   5.9217474038129012        2.4594722917624643        8.9037916527923325E-002 H 
 atom   5.0971029069825544        3.9155496267009307        3.3203082287842207      H 
 atom   1.4353298108636967        5.5581073083818833        4.2159052139577877      H 
 atom   1.6149927597193116E-002   4.2751887714867909        1.5791152234246701      H 
 atom -0.35032822673185393        6.6970844416957434        2.9188132473935795      H 
 atom   4.3655508928765050       0.61020343717127745        2.0132140423231695      H 
 atom   1.7399354274530465        2.3696136108760482        4.3677688096274565      H 
 atom   1.0891381738989188        6.0874464040210974        2.2081488810805534      H 
 atom   3.9490899726109556        4.5360019696273168        4.3505164896363588      H 
 atom   5.7359750458692353        3.5858354162975945        4.0777721523784223      H 
 atom   4.3383333202115049        1.2948260266345859        3.2709569080850494      H 
 atom   6.1500054793647339        1.5625339026419383       0.25027621279780171      H 
 atom   4.8054467422630109        1.3406831358166242       0.43028892215134334      H 
 atom   1.5468395019889551        3.7802372458913496        1.8984553853118715      H 
 atom -0.76566413224492991        5.5985701827313550       0.76669815315728274      H 
 atom   3.5558998237505413        2.7448326673501162       0.45165278936735398      H 
 atom   3.1831083479331221        1.0775743990405993        2.2875543626018828      H 
 atom  -1.3295098943461454        6.6494341532890306        1.3874953715959326      H 
 atom   6.5424776291944822        3.7959147379451155        4.2459930858774779      H 
 atom  0.88136384982881144        5.1074951293274360       0.66441430256237399      H 
 atom -0.56971019853314686        6.2522858896751687        3.9208003813647925      H 
 atom   4.5255180581925254        6.2667359675474872        1.7107173167216272      H 
 atom -0.17812345302385998        5.6564339503133754        2.0283847820916838      H 
 atom   2.3892522553960589        2.5050280267006468        2.7917710788741301      H 
 atom  -1.4336832995307869        6.2293906887745889        2.0483115526752509      H 
 atom   2.1186295538620015        3.4739326411593976        4.0091196144635841      H 
 atom   2.8322987113781104        5.2713694602479917        4.0713794972387545      H 
 atom   3.2198519590232100        6.2274103525170625        3.2231752622867038      S 
 atom   2.4688858537855429        1.1650308281405535        4.4127126180212377      S 
 atom   6.3808772037316333        1.1781144786207913        1.8846515872790446      S 
 atom   3.3348600593939053        4.4191854820148935        2.0810522575644872      S 
 atom -0.10886417187867800        3.4559931676095457       0.46088414870830891      S 
 atom   2.5310985225777682        6.5517650647398273        1.0951812146236122      S 
 atom   1.3109542642413250        6.6933554691338797        3.4084745012389694      S 
 atom   7.8007915463019666       0.86240278518770519        3.3669904076212300      S 
 atom   4.4439826127577344        2.0742293099702911        1.5707274475604787      S 
 atom  0.99206714594518797        2.8757610852601587        2.9271163864343452      S 
 atom   5.3503079742106854        4.6982102940568877       0.55207722840028672      S 
 atom   5.1358296888824038        5.3979513735269373        3.3060354388548507      S 
 atom  0.51569417337740786        6.4513988421678334       0.68881646965847998      S 
 atom   5.7007789833892346        1.7029040604456644        3.7229946055765941      S 
 atom  -3.7107567440534464E-002   4.7108852383679380        3.0024881348499566      S 
 atom   1.8363886629477364        1.7764924465068694        1.0616846810891627      S 
 atom   3.5572715124830050        3.3671477311200979        3.8042312832919016      S 
 atom   3.9995806772509042        5.6036060995658632        1.0556913706576230      C 
 atom -0.14901563796696490        6.9302335492171414        2.1355923959447880      H 
 atom   3.3425040438960028        3.5781023902971985       0.73351632947792544      H 
 atom   6.0536822606325398        3.5149821938037196        2.5158909728299128      H 
