 # 75 angstroem -185567.610132983
 lattice_vector   7.5613997167299418        0.0000000000000000        0.0000000000000000     
 lattice_vector  -2.1285918007353244        6.2119306287115528        0.0000000000000000     
 lattice_vector   1.2586643576032430       0.22989234278160636        4.7603261632047440     
 atom   2.5266984336358234        4.2108240649941129       0.46664922763689676      H 
 atom   4.0372500816476338        1.4423473140488858        4.5957414972441724      H 
 atom   4.2637600488775105        3.9597690391982665       0.71244419336710219      H 
 atom   3.1677636072963660        5.1215979480088176        4.3237009007557434      H 
 atom   6.4551895663824324        2.3775948311851152        1.0559375651011182      H 
 atom   6.1360977746064567        1.7518147146978782        3.1927516771194253      H 
 atom   1.8511627143910323        3.1876735513548091        3.1718832966398529      H 
 atom  0.67332978379377817        1.8818081311508712       0.79437536031221423      H 
 atom   1.8238772728460442        4.1002143498196277        1.8885420553412480      H 
 atom  0.43155906161401747       0.14129371366299937        1.0357829681213957      H 
 atom   7.4553722044310149        1.5479594160390631        3.4879354330041568      H 
 atom   2.4660929542027681        1.8664892850111590        2.0039432765612712      H 
 atom   7.7977444278434352E-002   1.5492472996181019        1.8347279022777576      H 
 atom   4.1697811180010760        2.2855343536207826        3.5769165808517576      H 
 atom   4.7734174967082925        5.1865311152321567        4.5545577163783273      H 
 atom  0.80449133357713432       0.70921870959402700        2.1882091506258328      H 
 atom   3.5413093321415250        1.0599432460974014        3.6266385877748069      H 
 atom   3.1504930112878138        1.8140100352895232        2.6429203776203245      H 
 atom   4.9855808682357354        5.2764348463864321        1.5018368177107295E-002 H 
 atom   1.5538135161872053        3.1446036373718793       0.90565607123469760      H 
 atom   3.2467670210635200       0.53948293922084267        1.5926322131666264      H 
 atom   2.5261506594325893        2.7972375664450646        2.8734736844408197      H 
 atom -0.14021904401456176        1.0566606284193278       0.12122098164026152      H 
 atom   4.4902633975622264        4.4199611525168407        2.6645629086999048      H 
 atom   1.1797404959966298        4.2116466071870917        1.0318629220725375      H 
 atom   5.2051868953456282        6.4350137023035980        4.7114211154556003      H 
 atom   1.6319723130957908        6.2539690600156321        3.8219188354884688      H 
 atom   6.6690638307427976        2.7370233349345345        3.8161538332589786      H 
 atom   5.4331231560628819        2.9845648831289733        2.8979025867268380      H 
 atom   2.0709441713324996        4.1555923094518974        4.1884831485601266      H 
 atom -0.42903798582084046        5.1457611562795140        1.8423620435171526      H 
 atom   2.3328465163026406       0.19277158642703049        2.7319110890749716      H 
 atom   4.4182078264523019       0.27376810395507023        2.1204027372825660      H 
 atom  0.73614485950963349        2.3435448568891877        4.0436083200155615      H 
 atom  0.77368229242349362        5.4399077910875899        1.9390260678343922      H 
 atom   3.1295581086370512        2.4983120945966806       0.78477403108331223      H 
 atom   4.9568200374984572        2.6067875033633059       0.79951856833018142      H 
 atom   4.5873546767005280       0.92836077214386581        2.9913361464101604      H 
 atom   6.5440329521918041       0.87041217515947333       0.29565395538585648      H 
 atom   5.5265510223581167        1.3969580131224879       0.16035592043212482      H 
 atom   1.6542754293471564        2.7317702633103660        1.6758409573631490      H 
 atom  0.17220173407280934        5.8379557774891389        4.4314299259932062      H 
 atom   3.8975656681688156        1.3406726804495213        1.1253765031532694      H 
 atom   3.3832715146802372       0.61019303971801730        2.4245044338617601      H 
 atom -0.46078640794328146        6.0615074004119123        1.8304243981838537      H 
 atom   7.0643234171627913        2.6913039734760411        4.5229267822511963      H 
 atom  0.31523242048475769        3.9880004424796742        1.7718642148288117      H 
 atom   5.4757210085156593        3.5156110693819893       0.45111880807188542      H 
 atom   4.5047099864598970        5.5369532855761969        1.6839535472802520      H 
 atom -0.56654799881391837        5.3983425179117583        2.9855821482265004      H 
 atom   1.5053697784654863        1.7329680961111482        2.8892978822924626      H 
 atom   5.7035012217305567        5.0669580387092488        2.7438196020451091      H 
 atom   2.5224032197319763        2.3580369902291416        4.1695629847347897      H 
 atom   3.1648454862549880        3.9706616572542166        3.3812430497372659      H 
 atom   3.7031643615949217        5.7971592802378167        3.1934990175344247      S 
 atom   2.0666468697068816       0.89400333025897383        3.8795650345255237      S 
 atom   6.2315666973949151        1.1589267504689191        1.7688088867986234      S 
 atom   3.4728233565306978        3.7821963031223054        1.8166189665044659      S 
 atom  -4.0706697371691726E-002   2.9896377499801612       0.22264785185357791      S 
 atom   2.8617645842907189        5.7198144433829441        1.0528172177650903      S 
 atom   1.6572467146041789        5.0041475049326243        2.9802373847934738      S 
 atom   7.7789097390978901       0.21658157168250547        3.3320781901639047      S 
 atom   4.5612714420622469        2.1957573999696374        2.0623188879754344      S 
 atom  0.39483119544400158        2.8355631594832662        2.5445890408578333      S 
 atom   6.0852007784018367        4.1983810648311204        1.5184216395040853      S 
 atom   5.4333528958376327        4.0497874569138794        3.9383971175920953      S 
 atom  0.85222030400389304        5.4638428589911454       0.43712655519151372      S 
 atom   5.5618458815705090        1.2091431569013928        4.4271766952429603      S 
 atom  -6.9778399536094785E-002   4.4336578070301709        3.7860466186927129      S 
 atom   1.8803059786199394        1.0500533814751942       0.92995777147396519      S 
 atom   3.6782758586254225        3.2667349387571707        4.4348149943774731      S 
 atom   5.2884950484417281        5.4921708193216858       0.99270398471010013      C 
 atom -0.39058500869123497        4.8945673803783771       0.38097774704015730      H 
 atom   5.4729146299333502        2.6232206241079177        4.6730528863461283      H 
 atom   6.5699186985179310        2.9493942981437971        2.3922003611352700      H 
