 # 75 angstroem -185568.159783407
 lattice_vector   8.4384184797404469        0.0000000000000000        0.0000000000000000     
 lattice_vector  -2.2547398524380808        5.7796100113182183        0.0000000000000000     
 lattice_vector  -1.1184728017481855      -0.45627087480043149        4.5671151758607014     
 atom   3.3198381225102169        3.9503698597709525        4.3248979118153930      H 
 atom  0.26912585589335758       0.26079340451913552        7.6499366767797283E-002 H 
 atom   3.1458796567141243        3.8996096926320067        2.4636780050646299      H 
 atom -0.39036476253640406        4.1224061324436434        1.6263783297806278      H 
 atom -0.59260779612267300        5.1866693118347431        3.2290775442761275      H 
 atom   4.8479584927887194        1.4914160609840414       0.97441974108528551      H 
 atom   1.0750980315846530        3.6596119972570187       0.35243325940242282      H 
 atom   4.1045653766256587        5.1604072684000419        4.2855946346567650      H 
 atom -0.12452491771852391        4.0346172375761364        2.9526425607618667      H 
 atom   3.6784823050917397        5.1524071087267043        2.6455032009932058      H 
 atom   6.8291516525496885        2.4480259009945771        5.4503972588803851E-002 H 
 atom   1.5520680118972490        3.7859397509915378        2.3445253685186942      H 
 atom  0.12457657764185655        2.3989536625697601       0.69213489436564479      H 
 atom   4.2460642577920238        2.5884666323459435       0.34280292998781720      H 
 atom   2.4068374414508220        5.2797964089936258        2.3236477950841614      H 
 atom -0.28493755143218846       0.23438711085605818        1.9397236413173340      H 
 atom   3.5047882885247890        1.6374091374818593        2.3527137163444380      H 
 atom   4.1393801220452859        1.9677603680417899        1.2774200220299976      H 
 atom   5.1916310664560230        5.4545596601083357        3.0948355168039181      H 
 atom   1.9672176145180016        3.8892451659975946        1.6344078556191399      H 
 atom   5.5316755910638866        1.9861262680425937        2.7386686938028411      H 
 atom -0.78465622838824078        3.7306341044744209       0.29435475209284356      H 
 atom  -1.1265707435678871        3.1663356293966327        1.9506658724967807      H 
 atom  0.28765833252342526       -1.6476374366143954E-002   3.7091102890633696      H 
 atom   4.0106608810390449       0.59598215764212337        1.0906930429239963      H 
 atom -0.51616250731221713        2.9290726894290313       0.82710609082165831      H 
 atom   1.3363455063227374        2.7636168347780070       0.99209898229145854      H 
 atom   5.0876416979623036        2.8753493823633565       0.26830185180739530      H 
 atom   4.2116893400638515        3.4126199361133924        1.3175264157781068      H 
 atom   2.2993673188229065        4.4140807566837541        3.9789227195537866      H 
 atom -0.73235862005861707       0.65275617811658249        3.6800272743732330      H 
 atom  0.55495998841005123        3.3864029842828360        2.0214022697771776      H 
 atom   2.1589207328962416        2.7100875558655382        2.7447657699181125      H 
 atom   3.1760534968137861       0.48427269331375816        1.1411785063990709      H 
 atom -0.28737068757964301        1.7429728568681051        4.5058552985116140      H 
 atom   4.5237884432954951        1.5423267849213662        3.6489511277311171      H 
 atom   2.4299980665634053        4.2486844558529393        3.1872277692878597      H 
 atom  0.89159172345203674        4.0836207463370577        3.5773503178927335      H 
 atom  0.30195998962320858       0.74042979682679289        3.1525773908051993      H 
 atom   5.2079585259627743        2.6664705076088797        3.9040960325128564      H 
 atom  0.85232356068022586        4.9182350329110873        1.5448310859814387      H 
 atom  0.31322755592078905        4.7356184153350691        4.5288306592008007      H 
 atom   5.5040968961397239       0.59834741404092295        1.8266189503815038      H 
 atom   1.5061596964253861       0.97287358855501116        2.9298142754951639      H 
 atom   4.0108630432099872       0.87854378944040890        2.4665060444291309      H 
 atom   3.1918859760358744        2.0438364469963068        3.4513514669648271      H 
 atom  0.56862126729710571        3.9494378470018128        1.0198370870769393      H 
 atom   4.5240628734281456        2.5712245995335477        2.0689771702876643      H 
 atom   2.2546130552879964       0.57217789473974168        1.9652609908853858      H 
 atom  0.77139534898612960        1.1232719269543403        1.4193813982541958      H 
 atom  0.39789156465222630        1.3687737085979905        4.2645382667744336      H 
 atom   1.7258981260868598        1.0167906722617968       0.57037017820446134      H 
 atom  0.48537548854062462        1.0066705816909443       0.50621942405423637      H 
 atom   3.0924199365357543        3.2289246191098915        1.3347764818811738      H 
 atom   2.5859830384560079        5.0391197345027079       0.85575146400825097      S 
 atom   2.2974342267366490        1.0135902995221204        4.0309792811478307      S 
 atom   7.0123805152137271       0.96853867568138308        1.5195665504627953      S 
 atom   1.3407057347489524        2.8029608577754379        3.9964492892979844      S 
 atom   6.4408057481351255        4.6036971896567227       0.30749844403724058      S 
 atom   1.0717295815340850        5.4138915360370286        2.8486487378285492      S 
 atom   5.7364472273395801        4.2423932378457643        2.8347151748412642      S 
 atom   6.5607498613876549        1.3672322894491777        3.5032405199138781      S 
 atom   4.4709968667679290       0.44471192221680683        4.3968899435505531      S 
 atom  -1.0088271631115153        3.1897041318031718        3.5957956341305874      S 
 atom   4.0429625139522107        3.2161736222469535        3.2858818555043094      S 
 atom   4.5267128661580420        4.7395863095202078        1.2185654778593862      S 
 atom  -1.1809841097671943        5.2811542823358142        1.9495888940891259      S 
 atom   5.0975108072514909E-003   5.5054229531532863       0.10351606244929926      S 
 atom   6.1194402936456553        2.7951144244623576        1.3429082145754259      S 
 atom  0.21873585574209037        2.0558345210542455        2.3922848799447909      S 
 atom   2.4281953816109465        2.0500591451764976        1.4966486029718566      S 
 atom   5.8028194293410049       -9.0977520227765798E-002   3.5639427326194100      C 
 atom -0.64247213207594800        1.3475660657634925       0.41950577813241025      H 
 atom   3.6454854300634612        3.4601636659473356        5.0908543700814893E-002 H 
 atom   5.0240451238188255        1.1385287531946267        2.2820355871887235      H 
