 # 72 angstroem -185532.81056308
 lattice_vector   7.4040885384832240        0.0000000000000000        0.0000000000000000     
 lattice_vector   3.7635847070531523        6.0860746969891837        0.0000000000000000     
 lattice_vector   1.9065110446747944       0.79604876192395313        4.8453225362712820     
 atom   10.847012431086368        6.0004566060767868        1.4828904571257575      H 
 atom   7.5339708691375984        1.8511474479533543        1.3117998100005228      H 
 atom   8.2725812032019483        2.2728912757140827        3.9409076285209741      H 
 atom   4.8209976883462353        1.5414139604174324        3.1761690115549679      H 
 atom   7.1804087838245270        1.1337806053479069       0.22717698005920914      H 
 atom   10.414479301749454        4.3727287005524111        4.3738928657963401      H 
 atom   9.2413806163922754        4.1096426492696887       0.50576278239150363      H 
 atom   8.4379019520211038        5.0776371695906519        4.5567458891959047      H 
 atom   7.5477196956628427        4.5181172456359899        1.9946774362291600E-002 H 
 atom   7.4677857076457723        6.6830080866369164        3.8425042265306870      H 
 atom   5.2243977198956149        2.9849543956363354        4.2004453326050122      H 
 atom   2.2736535039956851       0.97843940011079922        3.7644022101109695      H 
 atom   6.0411114210297523        3.7858310770339187        3.4832834748506154      H 
 atom   5.9516917626567922        5.1407567601202775        4.6095605628055525      H 
 atom   11.029354494791733        6.5712359309942778        2.8901599566835534      H 
 atom   7.3300323372449530        5.7072893722206279        1.5357618864062526      H 
 atom   4.8732127070098494        4.2829288069915288        4.2842058138600656      H 
 atom   4.9106591439206078        4.7359934418876071        2.7415586559842073      H 
 atom   8.4303176314625698        1.2156826653746289        3.0607512296612378      H 
 atom   10.537757680737702        5.8546087543844587        4.2534993900761888      H 
 atom   4.9715915982592493        2.2730336843436532        1.5313398285497302      H 
 atom   3.7469213288269878        1.7327840970708743        4.4273315020003290      H 
 atom   7.6890459000516485        2.8983107901068963        2.5694444397412703      H 
 atom   4.8545489993081352        5.9142434409994094        3.3902077029815079      H 
 atom   8.7300762348503280        6.2866952783330996        3.8679279750927198      H 
 atom   4.4295073623371479        1.1032724026318161        1.5760942285733581      H 
 atom   8.4082435054940561        5.9189005906718286        2.8525115606672347      H 
 atom   7.2936478625509809        6.1376496738318638        2.4997555182460314      H 
 atom   4.4331603565501609        3.1649402642380200       0.22306975064091517      H 
 atom   8.2192640427945740        5.9849553892094214       0.28341511382183682      H 
 atom   3.7571590700440165        5.0395177397203055        1.4303575513212057      H 
 atom   7.6264741422868880        1.3004471801040431        4.1825495703908935      H 
 atom   3.3758749328254698        1.4009365515026044       0.74286453231992444      H 
 atom   8.2719596466020935        2.9914423610736200        1.3627909235422762      H 
 atom   6.4756563766430046        4.5737756281060582        1.8319741006273400      H 
 atom   9.7873827182694679        4.0816643221889537        1.7092903911944488      H 
 atom   5.9961057664059396        1.1079964607614885       0.76877761631563979      H 
 atom   4.5445407266430911        1.3414476623843150       0.38638710971150658      H 
 atom   9.1843576613951612        2.5409609633702650        1.9540262584095325      H 
 atom   7.2481652783360975        5.9299133741437799        4.1926577151046907      H 
 atom   6.2276368845760537        1.0840465794565701        4.3297882968962282      H 
 atom   4.7260229013162585        5.9632642775303930       0.45417115861300777      H 
 atom   3.9784939254136322        3.2387032844442811        3.7082451013638327      H 
 atom   4.8979954175377394        5.5302166522533627        1.7539476469060495      H 
 atom   5.6293121111858282        3.0122009716572373        2.8040566866172911      H 
 atom   4.2443665345113484        4.5931302312545226        3.8780783994733663      H 
 atom   6.6901978413535632        3.3043001965646552        2.1905797842298149      H 
 atom   11.233810090548248        5.6019291833439064        2.7553145435494484      H 
 atom   7.7205846928780399        2.0790345548371665        2.5462201678822276      H 
 atom   5.0862467061139993        2.2114966331277293        4.1381323593672974      H 
 atom   3.4317231286779672        4.4956529681769082       0.74491762423180963      H 
 atom   7.5502180295174313       0.75590884834216465        1.6574395994273587      H 
 atom   9.0614171709665818        3.8718400717994603        4.8394430749945299      H 
 atom   9.5829496411729451        5.9036764766403511        3.6948589602477795      H 
 atom   9.2730669769144587        6.1558358867286556        1.5798518496957603      S 
 atom   9.4380341903422806        2.8311329131220209        3.3057759757269887      S 
 atom   6.3510882084924516        2.5718139307981187        1.0083926928421094      S 
 atom   11.843064439312018        6.1776443751257952        4.6519656172925226      S 
 atom   8.1329875953521142        4.3977279838745220        3.3460952205786176      S 
 atom   6.2548263096123700        1.4449080588528025        2.9302188077660642      S 
 atom   3.4864467946728679        1.5144369832502260        2.6554120374487304      S 
 atom   6.9960774414780893        2.9591281045366884        4.3028345517736089      S 
 atom   3.0120606890650974        2.8737581136634671       0.89550158909333866      S 
 atom   8.0509186179203152        4.3581261476209789        1.3047873126850944      S 
 atom   6.2930587268902016        5.2022120249546022        3.1999088550901695      S 
 atom   1.6300755559307478       0.82788464949769502        1.8871042706795265      S 
 atom   2.8505798957781958       0.12415472109580300       0.41295062498650892      S 
 atom   4.3778835269058662        3.4434540047008917        2.3214290196815477      S 
 atom   5.4375080199892958        4.3998972621960784       0.81596552023742464      S 
 atom   8.7409985447514558        2.1711811722388612        6.1533229127560395E-002 S 
 atom   10.144898215308771        4.7122756231456036        2.9079510722162873      S 
 atom   2.0306227817062763       0.99306241304198506        4.7830348688361752      C 
