 # 71 angstroem -185520.378591204
 lattice_vector   7.4690429981233146        0.0000000000000000        0.0000000000000000     
 lattice_vector  -3.8734615011823204        6.3867901328624539        0.0000000000000000     
 lattice_vector   1.4397807182935360       -1.1003599867326008        4.5715810816918605     
 atom  -1.9390872102828325        4.4109064732191490        4.2220309530828297      H 
 atom   7.5326028780478380E-002  0.60623363576913536       0.22699187354559000      H 
 atom   6.5373945951019682E-002   2.3988772643299687        3.4131343457881176      H 
 atom   3.4333209945696557        1.0138303051312789        4.0973578233810528      H 
 atom   1.5147953269627596        2.0953551162207429        2.1607932838581889      H 
 atom  0.81519924783876219        5.0807430165326650        2.8398687237890501      H 
 atom   2.2387647904484873        2.8406643366677646       0.81389388138218166      H 
 atom   6.1003155228448360        2.7291522618462420        2.3765239564615350      H 
 atom   4.3475937780735059        4.3143558734710998       0.90365286805628231      H 
 atom  0.66868837389123537        2.7031051631290528       0.60232794490687669      H 
 atom -0.60767079325413242        5.0335920293676759        2.0651478460176880      H 
 atom   3.3492554942578932        2.2346021647720828        3.3665716145658360      H 
 atom   2.4213437563870812        5.8464058959560523       0.16241719035597407      H 
 atom   5.9278562694235424       0.77021174647208868       0.50893479745071302      H 
 atom   3.0587881171328561        5.1673793029731989        2.3156416249960561      H 
 atom -0.50364875454726954        5.1092076163414006       0.77239815697210934      H 
 atom   3.4420071637009682        4.0866431892986377        3.5710336653857944      H 
 atom   2.4319169207879261       0.25038116292746510        2.0891429324557751      H 
 atom   5.5787903401118655        1.0026392830768931        3.9188142006137121      H 
 atom   7.5178851835638296      -0.32532195979978029        3.8759194102656700      H 
 atom  0.51492731811310344        4.6143069708996443        3.5470110015925891      H 
 atom   2.8971945440767519        1.6166206672591101       0.80461686243134956      H 
 atom   5.8704310029971358       -3.7462574454254188E-002   1.4216270648274068      H 
 atom   5.8080438267925896        1.5508913327094118        2.2675135872656194      H 
 atom  -9.8203034786715382E-002   1.4515540494719112        1.2093101827235295      H 
 atom   4.1458919826843660E-002   2.1734910234164699        2.3640211465543413      H 
 atom   3.3687874137772917        1.2103817685822380        2.3267959704374643      H 
 atom   1.4852684312565707        3.4611191467863760        1.8562758427192922      H 
 atom   4.8968234946312714       0.68013792916040949        1.5795719051546000      H 
 atom   5.8612387797848591        2.0737606107039324        3.3960322558517606      H 
 atom  -2.3289546002158277        5.4192166294978517        1.4181520153065510      H 
 atom  -1.3902006485603788        4.1878784986256274        1.3407561265657104      H 
 atom   2.5674201039050191        2.8937678160950786        4.5600385430143042      H 
 atom   4.2791632025251722        2.9291293138177310       0.41686980787202188      H 
 atom   3.8987270526767728      -0.13586389630133794        1.6203925509831987      H 
 atom   3.6606221571846325        5.5191367081581859        1.2392081416373653      H 
 atom  0.66186161471580152        1.1756538983685221        2.9635456477870630      H 
 atom   2.5724976900923258        1.5002343034794572        2.8072577688745008      H 
 atom   1.6970831864430473        2.9995528078906180       0.19326486333328977      H 
 atom   5.9435048812339959        3.3288692040244774E-002   4.5833076189137278      H 
 atom   4.7709939682535927        1.9225676611684552        2.7512104312722254      H 
 atom -0.61339534453331945        3.8837745495383267       0.29608083954896114      H 
 atom   3.2576256120635736        4.1774980454521575        1.0320608496869155      H 
 atom   3.3567545324893269       0.26707969743845800        1.0820682614373893      H 
 atom   2.0864603151442882        4.5084668343018137       0.65439121041324677      H 
 atom   6.8124582699672285       0.95085939952828824        3.8712447115665953      H 
 atom  -1.2996946896427213        3.9796024566434438        3.2841674454654259      H 
 atom  0.96376193985033176       0.17908659077469385        1.9215442605783832      H 
 atom  -8.5979380713632647E-002   3.8927187078054213        2.9628205922727693      H 
 atom   2.1338267843147425        4.7242187654277670        2.4173230706724347      H 
 atom   4.6888698158891886        1.7853589826997571        4.5798718198406458      H 
 atom   4.5758191536077639      -0.42745399642791859        4.4207138457599537      H 
 atom   5.8845671661455494      -0.31242647414590763        2.9909536930910026      H 
 atom   6.7975336563974853       0.63589091663698827        2.3982938217395589      S 
 atom   2.7407674139378826      -0.68586979022112127        3.0985874438315242      S 
 atom   1.5263968338820615        1.2009541070570238        1.1235610579940978      S 
 atom   1.0885835607404422        5.2354370811179232        1.3909865779616035      S 
 atom   4.4173829636121109       0.41026627021773826        3.3572213792835761      S 
 atom   6.1370129872618628        2.1386018998800744       0.53385474097647889      S 
 atom   5.1122364247955323        3.7009208714559363        2.1743973649061150      S 
 atom   1.6998538373018337       0.99130417372749591        3.8394149456180307      S 
 atom   9.3067476965624396E-002   3.3830542464020472        1.6888679149368806      S 
 atom   4.2376679861721254        1.8493782651952138        1.3416125220101716      S 
 atom   4.3351304163887621        2.9656290312939348        3.9491162207540258      S 
 atom   4.3310901134966988        5.4008731181845615        2.8579418371865679      S 
 atom -0.89895011821902360        2.8828929971428954        4.2845132012012117      S 
 atom   1.5466018878389807        3.0764501731211684        3.7148399895767672      S 
 atom   2.9181246792037663        3.3398036439862882        2.0852997769085890      S 
 atom  -1.6046323661947572        5.7989477404182006       0.32796176214346662      S 
 atom   2.2256461552502160        5.0299032775656727        4.1421382003137968      S 
 atom   3.4478714200948155        5.9750697651323694       0.33258018206269335      C 
