 # 74 angstroem -185556.166428884
 lattice_vector   7.4566595821389372        0.0000000000000000        0.0000000000000000     
 lattice_vector   3.6401052057501575        6.4923132585920689        0.0000000000000000     
 lattice_vector  -1.7903669472055768      -0.67129037680954462        4.5991570385154619     
 atom   4.0639682731001390        5.8663985873817115       0.54274175697575255      H 
 atom   2.7943045998768365        5.3437840987104073        2.7846557331473281      H 
 atom   1.8640833411728863        3.6954918928892062        1.4743052266398464      H 
 atom   5.3426065230460367       0.84722490329415223        2.8911255235893374      H 
 atom   4.4709143235480235       0.73128129279821663        4.1450060563198923      H 
 atom   4.6162333037286905        1.4257308509228912        1.1550769645524404      H 
 atom   4.2347654219267454        2.4709225495053051        1.0096676690383346      H 
 atom   5.6304562154851636        1.6169833706255030        1.3432569569953978E-002 H 
 atom   3.1227973820344830       0.13680084547952909       0.95332157234094428      H 
 atom   7.2064634001929964        3.6450792586226619       0.30328114236468978      H 
 atom   3.2133471834054390       0.10574974519943074        3.3306495718851430      H 
 atom   1.9814165517822140        1.4420227808034620        3.0232254606790612      H 
 atom   3.9323127774384248        4.9951469502170855        1.9549106419045497      H 
 atom   6.0957811856218536        4.3273267967888058        3.8802081298712352      H 
 atom   4.1678787668912660      -0.21786392428731366        1.7885296496658760      H 
 atom   2.4895756925278576        5.8329516682679339        4.1155068563842994      H 
 atom  0.78742736929514379        1.0736986263081378        1.4695130626498454      H 
 atom   8.3104682254038735        3.7416318263784016        2.7625783386857745      H 
 atom   2.3576774987704439        4.4419942265865977        2.2873862126926268      H 
 atom   6.0881956383611957        5.2332086572756786        3.7585007092491480      H 
 atom   2.4264920232206686        2.5280288269929123        2.3641331276416406      H 
 atom   1.9949757587695800       0.63312286038356558       0.23169005473981000      H 
 atom   4.7255187745238869        2.3167839770067000        2.6291749837432468      H 
 atom   1.1969855066485262        3.3043527519961375        3.4354391517063227      H 
 atom   5.9880729753574773        4.4891510905742145        2.7821994715715084      H 
 atom   5.0325211732707649        3.7411052489765182        3.1024676570352709      H 
 atom   1.0716780144251583        8.3341823748173796E-002  0.92259795747170170      H 
 atom   4.0166875105685182        2.8060587110352979        3.7276841906491756      H 
 atom   2.8089749479395043        1.7118465824454572        4.4701286177707020      H 
 atom   4.9002790019954361        3.6387654154189288        3.9911231522393242      H 
 atom   4.9916435615565140        5.3231821802624903        2.7902050713855178      H 
 atom   1.0000451104502486        2.2535217447561964        2.7318039259921028      H 
 atom   7.2003034391901863       0.52960298022275953       0.74828685654112259      H 
 atom   3.7603289897600072        5.9369998030341185        1.8390867701067015      H 
 atom   7.4724492820260444        2.0789772796322001        3.2440451658452987      H 
 atom   1.4305397983226906       0.29721584134115903        3.3315415237040202      H 
 atom   7.3679138054480751        4.6250822551252400        3.5288768425418064      H 
 atom   4.6814529971270025        2.1078190739805178        3.8966274228415609      H 
 atom   3.2020411420942163        1.7319104750859728        3.5628070605230309      H 
 atom   2.7931301990823294        5.3424770658534042        1.2982635679077912      H 
 atom   6.8568164257874251        2.8348855000552278       0.12252860563065598      H 
 atom   4.5475576526760833      -0.42014602732859874        3.1253670552131609      H 
 atom   6.8057628712704705        5.5590454675782812        2.4498790644629280      H 
 atom   5.5962802671917053        2.9126249778972926       0.46404220182531153      H 
 atom   2.3100786602156735        2.5392428590580520        4.4811100235537848      H 
 atom   6.9551298500876362        5.3939754189302498       0.24754332807606400      H 
 atom   1.6556872204131998        4.7887256364699322        3.7079089432619243      H 
 atom   5.5755755880866555        5.0851945955678518E-002   2.1204407759574639      H 
 atom   7.0722637794739764        1.8605373913143683       0.82897045278382187      H 
 atom   1.5335904815505004        1.8583719220309716        3.6161140717978131      H 
 atom   4.0758722852770974        5.0573074429003624       0.28876740315717186      H 
 atom   5.7099285868937653        2.4390408311737182        3.2958138331262252      H 
 atom   3.1162799363230849        1.8551132609102357        1.5231015804795833      H 
 atom   8.0787990908427414        5.0889493175069118        1.0849173711732778      S 
 atom   3.9838519428076453        5.2455718987597066        3.8607827854240955      S 
 atom   5.9497096219827270       -7.7193674478520963E-002  0.70650908736910878      S 
 atom   6.7474732239071917        2.9588701653811360        4.0436798039202975      S 
 atom   6.0296621937899841        1.9214634556018120        1.6979644411391899      S 
 atom   6.9293288567108942        3.6927710846393840        2.0523858378503497      S 
 atom   2.3320648608479435        2.0817007048740795E-002   4.4225818464064428      S 
 atom   6.0523677379776837       0.69849286436831204        4.1008563596243244      S 
 atom   3.8658237235132966        1.0864421387269994        2.5092508224021159      S 
 atom   5.5718078256856369        4.3569986086812040       0.68068871728543490      S 
 atom   2.8070204874040563        3.4909085518346910        3.2454819898103624      S 
 atom   2.8710251985143409        4.0134599231173205       0.41944010318099845      S 
 atom   5.7598408000033032        6.0677100800779469        1.7598994149023215      S 
 atom   2.5205334349499418        1.9338665837532474       0.27207469358855135      S 
 atom   4.2269037934992006        3.6135740567051888        1.8568667575907427      S 
 atom   6.2598746825837603E-002  0.56725667140467162        2.7002032897037691      S 
 atom   1.0297926704807721        2.5483251473482884        1.3995810536274933      S 
 atom   8.1602059651633798        5.2566446965282472        3.7754971127483392      C 
 atom   9.6249043700691743        5.8895402057766084        2.6332240694008293      H 
 atom   2.0695114618640704       0.97622736358312967        2.1465206356104902      H 
 atom   8.8054814316781798        4.8505956890022475        2.2081284352852708      H 
