 # 72 angstroem -185540.778206528
 lattice_vector   7.5427779039173517        0.0000000000000000        0.0000000000000000     
 lattice_vector   4.1803738842779739        6.3036228153706917        0.0000000000000000     
 lattice_vector   1.6866974061648652       0.90061277686573604        4.6753739588875591     
 atom   10.568878887274654        5.7229374972338505        3.0123712557749891      H 
 atom   8.0712323444565612       0.90238056448972193       0.18510944983773120      H 
 atom   12.435377107930986        6.1345752214546465        4.3000613553439813      H 
 atom   8.8836061113108116        4.0474938274981920       0.28619566314850148      H 
 atom   8.8939505000784820        2.6971556296300325        4.1252824051026167      H 
 atom   5.6407032819540062        2.3436095393944556        1.8711940430365457      H 
 atom   9.7893871568598865        4.5257014621287626        2.6254982070975785      H 
 atom   6.4056852789118972        4.0621901961867621       0.25790387655030372      H 
 atom   4.7545929441102572        1.1427718728542708        1.4853142135153994      H 
 atom   8.2640509190325631        1.4888931278991777        4.0568682955553825      H 
 atom   5.5726795867206178       0.93442745783546721       0.25942087428303828      H 
 atom   3.2656932765678865        1.2428059332004324       0.64418799712422825      H 
 atom   8.0802346347491767        3.6485922717522659        3.3979426070943264      H 
 atom   5.7273997127340550        3.7223974709112100        3.3686234521899729      H 
 atom   8.0970837363000339        2.2656587114439750        1.8306790787739509      H 
 atom   2.1875614886907160        1.1131366438275423        1.3927329252094642      H 
 atom   3.8869079971792280        4.1704122592915711       0.25978084455796302      H 
 atom   5.5694939715695524        5.6582630787598074        3.0302168888984538      H 
 atom   6.3485385256981388        5.3727727140433412        1.8162250390142078      H 
 atom   7.2287657342074141        5.2208049249678155       0.67153292320965841      H 
 atom   8.9067265373237792        6.7740493107454691        3.3721009323258864      H 
 atom   3.9095700750062043        3.4163874978040627        2.2562366535637843      H 
 atom   7.2306964938802709        3.1874239722259547        1.1175895409901555      H 
 atom   10.647060945361714        3.6685978202293188        3.4347097650248934      H 
 atom   9.7579440238453223        5.8907377980892370        4.1742009858271434      H 
 atom   7.2202027645770883        1.1099735059883693        1.4262980282892801      H 
 atom   3.9434288893044389        1.4183031742409273        2.6161699192158987      H 
 atom   8.9082664535330132        3.3388614526458973        2.2319631070961736      H 
 atom   4.8937382577686357        4.9382441343495911       0.69455312581777817      H 
 atom   8.9542208227462385        5.4662778038088238        1.8216370649930076      H 
 atom   5.5473678870824594        6.2626165109603154        1.0335756879705515      H 
 atom   8.9651524891289398        1.4056979806244145        2.6705734322769734      H 
 atom   3.8929766775726331        2.6817031974970105        4.1850647879972591      H 
 atom   6.3843293809150579        2.7274665267592688        4.1764904579084128      H 
 atom   7.1730661935486983        4.4198989114461158        2.6000428833878160      H 
 atom   2.3890405243316213        2.7342800406139536       0.82287827268072955      H 
 atom   11.439545383880812        6.8214073582699095        3.4304673141370938      H 
 atom   10.457042781401652        6.3679602137369411        1.1268916799506732      H 
 atom   9.6612357646743305        3.5093278220935806        1.2358332084369035      H 
 atom   7.2726185563767451        3.8799107168172862        4.5818934538813592      H 
 atom   9.7970413989204665        5.2101968822871045       0.64144602607929690      H 
 atom   8.0935397410590006        5.5883816586485429        2.9726519295360165      H 
 atom   4.5278510022099825        1.5386132442251710        4.6506620533855951      H 
 atom   8.0194661509896132        6.3704438191512045        1.0729862601568285      H 
 atom   5.5609929192063854        1.6216274672728375        3.8382532931549296      H 
 atom   4.7889520450216532        3.8549723518995624        4.4841611912505321      H 
 atom   3.0564493023752606        2.2753402087225374        1.8975595737861022      H 
 atom   6.2673193904183142        6.8132552565124325        3.7263708041043850      H 
 atom   6.4023109530764861        1.3692278135665548        2.6395523911672942      H 
 atom   3.0451218466600194        1.5581879739993416        3.7109018516725691      H 
 atom   4.7514642276510752        4.5487995852659617        2.6502468349133239      H 
 atom   11.495802821636424        5.4718940141588144        1.8904420737976222      H 
 atom   9.7746071418166167        3.8197918985522397        4.5867764319194748      H 
 atom   4.1717947903509822        6.0700389411746958       0.73110792941540792      H 
 atom   9.7533642563277194        6.5733070906209061        2.2396326583738029      S 
 atom   9.7813463094779678        2.5110863948276245        2.9970098100219338      S 
 atom   6.4183193801032825        2.0489888157943557       0.67184299077045084      S 
 atom   10.667403972272158        4.3954448574824507        1.4739672771184191      S 
 atom   8.9316584127163523        4.7316396907565705        3.7832506470739609      S 
 atom   10.590166114279326        7.0118736332504081        4.5780059312877599      S 
 atom   7.2198457924696333        6.5275678488758277        2.2415600351070188      S 
 atom   7.2427431782374336        2.5182532749265607        2.9954729485759986      S 
 atom   4.0745258418029300        2.2785637100343412       0.70636445580636109      S 
 atom   8.0659942455440277        4.3163729706967757        1.4433678305209710      S 
 atom   6.4722143072392395        4.8482118501934908        3.8033188270737321      S 
 atom   12.300947562118989        6.5944462882910591        2.2710975642278668      S 
 atom   7.9270526566099901        6.7965879967999809        4.5114984929055053      S 
 atom   4.7689921668414152        2.5327724950105241        3.0239146210022794      S 
 atom   5.6022665874085318        4.1900766501375131        1.5260315592206342      S 
 atom   8.8407820283492118        1.9228647228766325       0.64228329158700359      S 
 atom   11.473598862877639        4.7846662428790623        3.8175744513454526      S 
 atom   13.043755798231075        6.9979455581967454        4.4264106728735726      C 
