 # 75 angstroem -185568.668706264
 lattice_vector   6.8394251537489046        0.0000000000000000        0.0000000000000000     
 lattice_vector   3.6782491044133687        6.6322856055314627        0.0000000000000000     
 lattice_vector   1.2317263262772831        1.3531636800293205        4.9351766700217086     
 atom   2.7744582938560445        4.4225349468270032        1.7621513702959217      H 
 atom   1.7309958930447384       0.83692227006187747       0.38551355859093711      H 
 atom   7.9301778865590471        1.8976898559489885        4.5030606133989712      H 
 atom   8.6486864104678070        7.0273156777586703        3.4709876039868015      H 
 atom   8.2705001773465341        4.2107525292769896        2.4835589859483824      H 
 atom   4.7935416118634953        1.8273963170235874        2.6314244126755000      H 
 atom   9.2441787975759269        5.4172913254047179        1.9325724052762312      H 
 atom   3.9567417907444793        4.1893740215218154       0.54703552412114353      H 
 atom   6.4974905940131000        4.3554877034783175        1.9794780328986845      H 
 atom   6.7370984121772981        6.6462820357219563        3.5084772694442519      H 
 atom   3.8366585854693853        1.4750333960074689        4.1131125194365126      H 
 atom   8.1231227801720216        6.8859884307603076        1.9173071137727626      H 
 atom   7.2334319595358023        3.3528124704880331        2.5026973325429275E-002 H 
 atom   4.8791828399538160        5.2941589610365796       0.30991298527548183      H 
 atom   8.8464428117677443        3.8697508659380069       0.10316828734535478      H 
 atom   5.5714881456908998        4.9397118131215123        1.6442240987436214      H 
 atom   2.3516870681534510        1.5674623462414934        1.4899205097530650      H 
 atom   4.4900140704955911        4.1333958714664272        4.6739209903131584      H 
 atom   5.9813507651947342        1.5998614885786384        2.7918202636131739      H 
 atom   1.9232665507216526        2.5705600487291700       0.69724700872023770      H 
 atom   5.7105742644752002        3.6281097157918030        4.5369808895596027      H 
 atom   4.2143965900745552        4.8757895646134815        2.2171785161773028      H 
 atom   5.7419554960224284        5.7177262960813273        4.3930646202619146      H 
 atom   9.2056873688314464        6.2034664903222181        4.6067467782190530      H 
 atom   2.4640225493203234        4.1296431892314329       0.82274458562174269      H 
 atom   5.3733507879473628        1.6485393022761061        1.6379701831618085      H 
 atom   7.8497059028011806        6.0062136236741495        2.5196568016046448      H 
 atom   7.2051099764518920        5.7148837364528671        1.6468040759037124      H 
 atom   7.2190724730685014        4.0498014032825171        4.8129510657971339      H 
 atom   8.9819701737372473        6.8709029251073535        1.8157423346430668      H 
 atom   3.1477048904528249        1.7452575197428197        2.7762252937197429      H 
 atom   8.6341857824146171        2.9280747160313307        2.6212791648808804      H 
 atom   3.3562814759610093       0.89890503743630734        2.7855829927986000      H 
 atom   4.2161253759074011        1.9071694556479266        1.8706871415542006      H 
 atom   5.0730331615578725        4.4342444986627196        3.2247992459542476      H 
 atom   4.6135508852100378        5.7625180134510856        4.2358220203148678      H 
 atom   5.1775148039695598        6.8859048050226352        4.1239685013268579      H 
 atom   8.0561785544506126        7.4384339219186870        3.0220355258860829      H 
 atom   8.0357645891904248        2.8882733971679286        1.4628360383176908      H 
 atom   5.3763021739709504        3.1046626729040017        2.7169209693491472      H 
 atom   2.9789380770894915        5.0219506177215845       0.16935481975813407      H 
 atom   8.6121805663225715        5.5690958477506127        1.2669171871462706      H 
 atom   5.4810081450674915        1.6536583455598168        4.0546785998268646      H 
 atom   5.8130470781692374        6.5483955786702879       0.66690714287426511      H 
 atom   6.5370065494113065        2.9101961152576519        1.6035609777326736      H 
 atom   3.3268954680079923        3.3279660800574846       0.31307754112317232      H 
 atom   5.8731219152009704        3.8753392318775566       0.33992813848135961      H 
 atom   4.8875425730919329        6.0567109664863716        3.0758832799392759      H 
 atom   9.6639594466256575        6.7707598419344590       0.68073569818231916      H 
 atom   2.6696214474366675        1.4832966027489232        4.0703194993947323      H 
 atom   2.9102608130875640        2.6861193684078919        1.1745705498436334      H 
 atom   4.8272102860439494        1.0322238599975715       0.42385535551950287      H 
 atom  0.84571432707490768       0.42217630892853636       0.82966975340433280      H 
 atom   7.3541314415950376        6.2414465011804552       0.50210129643952162      H 
 atom   10.119162077509881        6.8463876314772243        2.7965848455023381      S 
 atom   3.1092160067876384        3.2021978263591886        2.4348096972945035      S 
 atom   6.4432215927172987        1.7261076050316508       0.77425511571115246      S 
 atom   3.9342895579913444        5.8802615129306215        1.2020256390987019      S 
 atom   8.3545960665873569        5.1978616726976385        3.4881359351221248      S 
 atom   10.015891574675891        7.3237612456365415        4.7435256620261708      S 
 atom   5.9525400244093811        6.2193356409942426        2.2237356425086321      S 
 atom   6.8455675105815406        2.8456803616902890        3.0988944920961004      S 
 atom   3.5615516668415004        1.0150166963105740       0.94796159738568153      S 
 atom   7.5850248198253141        4.2022253243033347        1.1880828667540384      S 
 atom   6.3465080494484347        4.6902903956188133        3.6775478073259280      S 
 atom   1.2046194111804747        1.4001041933864460        2.3221761485240080      S 
 atom   7.4694342832758958        6.6736941606530005        4.7621416324986701      S 
 atom   4.5008005258516883        2.6823280022547000        3.9455353941509972      S 
 atom   4.8991130552571134        3.5982456814478381        1.4049298797867629      S 
 atom   2.5331077908832031        3.3441519342387904        4.5630270583063810      S 
 atom   3.5404166219286854        4.9894339133082122        3.6025993365910853      S 
 atom   1.6689983336000886        1.2656246977964845        3.8942881236960738      C 
 atom   8.0954189619946000        3.2843723372765150        3.6995569653314608      H 
 atom   6.6866270124268441        2.4904351434104521        4.4215154035339301      H 
 atom   4.5686040037996216        2.4923446092674491       0.59663283425757341      H 
