 # 73 angstroem -185544.717940794
 lattice_vector   7.5455954821357789        0.0000000000000000        0.0000000000000000     
 lattice_vector   3.7901434688776199        6.2871924993480715        0.0000000000000000     
 lattice_vector  -1.6456983394080915       -1.0161030879772992        4.6390383575654406     
 atom   4.0458351413574194       0.32641633517710122       0.49048930474721725      H 
 atom   9.1977056427964072        4.9164890629759102       0.56289168489898700      H 
 atom   3.7284496249810273        4.3338847525756199        3.8927579520679876      H 
 atom   6.9334072411966012        4.7534148359971722       0.46777014168368058      H 
 atom   7.7641042715721538        1.0884788405176120        1.5841670620698363      H 
 atom   4.5020763770694785        2.9271138386731774        1.4148302981327094      H 
 atom   6.1868302081665547        1.9417673537187028        3.9127592700291429      H 
 atom   1.6982575067163290        3.4815917710640116        3.5875589834890960      H 
 atom   5.2923995219325999       0.50161071277559077        9.6286755473205768E-002 H 
 atom  0.90594983437779875       0.27189987988773295       0.17699973765516566      H 
 atom   6.6456664664184526        4.4204320370834447        4.2331461705570685      H 
 atom   2.7376638215884346        3.4609144630879426E-002  0.25045563256016568      H 
 atom   5.0241238276335123        2.9690149651803863        3.5027512545074972      H 
 atom   8.5037941213231409        3.9669463796755400        2.9908176742717041      H 
 atom   6.4735974528417284       0.44330739303058964        3.7051385356835076      H 
 atom   1.6174219674927612        4.0614965278508235        4.3559896190556708      H 
 atom   6.1412337723291825        5.1082792981908325        1.8485034516635026      H 
 atom   2.1633189783104840        3.0857348790598595        2.0692820298516605      H 
 atom   6.4046341148069796        2.2135536511603147        1.8830128549815734      H 
 atom   7.1632559504432711        2.0215365559449205        2.5822469420569951      H 
 atom   2.9058521010204053      -0.17462705260480904        1.7589026003997519      H 
 atom   7.2907840312372247        1.4734902579889244        4.2104994616124047      H 
 atom   3.5786728772311203        2.0387929010596668        2.2528532502169818      H 
 atom   8.7497482214909752        5.2558596241247901        4.4477155669160684      H 
 atom   9.3308879741364965        3.4758055700980011       0.53024574650313305      H 
 atom   2.3006371238651226        4.9692303123644663        3.7872641870536108      H 
 atom   2.3394852978948073      -0.23194859380670479        4.1325168455073928      H 
 atom   6.8285206130138425       0.84745344215294383        2.4738066564123944      H 
 atom   9.9598261199070510        4.8964029234508279       0.13010595885123888      H 
 atom   6.3458658301772743        3.0659585685482846        4.5551208298855252      H 
 atom   5.8155539651712074        5.5785058927017799       0.86435228245930484      H 
 atom -0.19558213536654037       0.10935736744972607        3.6341279974651335      H 
 atom   2.7091886013180559      -0.54493062335843978        2.8356290146763445      H 
 atom   2.3870098404701130       0.73104399806703557        2.6188159712575954      H 
 atom   3.0058341508433060        4.4026515641233734        1.4182137486397850      H 
 atom  -7.2023603237765133E-002 -0.63100357341439040        4.2165744221175778      H 
 atom   9.4979550345760533        4.3818463704881099        2.1783941356964012      H 
 atom   10.278593965548968        5.8464423648249459       0.96569486412072669      H 
 atom   6.0373878152883291        1.7542856509917328        3.1967784554844578      H 
 atom   3.9507198272870281        1.3504294782844313        1.2075508174810927      H 
 atom   6.3837436788008990        3.2363238148479283        3.7497997691511360      H 
 atom   1.5471441815526854       0.33026356391065864        1.2756376940542500      H 
 atom   3.7014306829815546       0.61037617373545572        2.1509032474471965      H 
 atom   3.8180288675482954        5.7504924133369721        1.2117190060740821      H 
 atom   4.0826670197060722        3.7368313934566704        2.5005788339489445      H 
 atom   8.1034575719562092        2.0892469987285924        1.5969789712930451      H 
 atom   4.7130419340666121        4.4195121397682913        1.8864093172454854      H 
 atom   3.5615503064560095        5.0413839952280677        2.5405599897448461      H 
 atom   1.7814960485668585        1.8246067959545140        2.2040364949758469      H 
 atom   1.2129879067439138        1.8633746002613474       0.41292709504891145      H 
 atom   1.0890205219076277       0.47848909525805661        4.2114030516440746      H 
 atom   5.1352156008298389        2.9537698426436574        2.4982087398622324      H 
 atom   4.8873418319007058        2.0233377323693129        2.6846764138941484      H 
 atom   7.6142992521729616        3.2322992988455539        3.9417869231860050      H 
 atom   8.0089791431332582        5.4559050255685211        1.2369348581761765      S 
 atom   7.2799721518929470        1.1799430026948245       0.21559147545451343      S 
 atom   5.3806490032528291        1.6962638427787484       0.97872878662908902      S 
 atom  0.68705629319272621        2.1263285382715487        3.4395901903075377      S 
 atom   6.1242483659125648        3.5468646009083105       0.12464311521445010      S 
 atom   7.6189346912045313        5.0468591967154977        3.3789105051483381      S 
 atom   5.0850961222063455        4.7203067720501393        3.6293516448290211      S 
 atom   4.4766141284499472       0.76204778676825569        3.2825277838147029      S 
 atom   2.6113290749721911        1.1357264235467481        3.9559212264032331      S 
 atom   6.4176048448777419        3.7452254220731493        2.2001308016246206      S 
 atom   3.0732381133423070        2.9363651845130754        3.1066646929461021      S 
 atom   5.8127613935221936        9.6960193279986354E-002   2.0165057667545829      S 
 atom   4.6738795079286986        4.8608960639773215       0.54561256376100686      S 
 atom   2.4551405756667215        1.4553528094173465       0.96278196320514364      S 
 atom   3.3471734307582666        3.3411022138534610       0.68396536054996127      S 
 atom  0.89183081859790070       0.10629560135072777        2.5444716019347382      S 
 atom   8.2927990370801901        3.4271757866431276        1.4387725860145741      S 
 atom   2.5276141501614791        5.0415997846500851        2.7729324462888112      C 
 atom   7.3371955311032719        2.6070350975577878       0.35524593820891676      H 
