 # 7 angstroem -45328.4067122474
 lattice_vector   5.4795768861984309        0.0000000000000000        0.0000000000000000     
 lattice_vector   1.3966546027052507        3.6548999297837161        0.0000000000000000     
 lattice_vector  0.21442412703425254       0.42566968551692203        2.0596748860670675     
 atom   3.5847549451643683       0.95430476837794753       0.15530241283616000      C 
 atom   3.6944967146140093        3.5153395632697437       0.49820354440321757      S 
 atom   5.5501624717855567        2.7721237076975140        1.6954936067696926      S 
 atom   4.3831681922916541       0.71063159891640992        1.2045128379896914      C 
 atom  0.51312337566198341       0.67484880281050574       0.85418488487457023      S 
 atom   1.9488642944614800        2.3528345604537981        1.2697239082325584      S 
 atom   3.5774963653064606        2.3814451331416975        2.0412346027693680      H 
