 # 8 angstroem -45340.7670148785
 lattice_vector   2.1284161127623666        0.0000000000000000        0.0000000000000000     
 lattice_vector  -1.6218861064243404E-004   4.1238242447067162        0.0000000000000000     
 lattice_vector   1.0639363620869502        2.2796262955975866E-002   4.8744260887508331     
 atom   2.9369127224757370        2.3583410440652677        3.9361213866939528      C 
 atom   2.9388232452191851       0.96520808711412565        4.7276656179399739      S 
 atom  0.80833988266438150        3.4667715797936425        1.0010145970875088      S 
 atom   1.8728584642057531        3.1002148309523294        4.2769811620564067      C 
 atom   1.8720967124079830       0.15452525428569117        3.0190736422486100      S 
 atom   1.8683726439051516        1.5959282395004559        1.6551602700051562      S 
 atom   1.8759237470401671        2.9558066510603314        2.3695586316839434      H 
 atom  0.80775187001308346        2.1708419814849398        2.9032697274818573      H 
