 # 8 angstroem -45340.8347906744
 lattice_vector   2.1120249614341371        0.0000000000000000        0.0000000000000000     
 lattice_vector -0.82037718111822033        3.8506813349126192        0.0000000000000000     
 lattice_vector -0.45218715522304781        1.7025716959443915        5.3003384943362946     
 atom  0.87992749715391627       0.53634743859429101       0.27862153690864944      C 
 atom  0.98720968487517535        2.8887924688732052        2.0308475152941856      S 
 atom  0.56299217476586672        4.3584594913935266        4.3594565467626456      S 
 atom -0.16936902593458067        1.1580145845717189       0.81175451746450156      C 
 atom  0.51154564090261168        2.4730726963675016        3.9405102571251898      S 
 atom   1.8587192730663620       0.92348347748785276        2.4500556772646704      S 
 atom -0.19522516187072958        2.1755602012048891       0.54344405167708942      H 
 atom   8.5447827551135239E-002   3.3693343798089725       0.54632783066605883      H 
