 # 6 angstroem -45316.0668209411
 lattice_vector   2.5045633603331710        0.0000000000000000        0.0000000000000000     
 lattice_vector  -3.7228956225542542E-004   4.2214611231488552        0.0000000000000000     
 lattice_vector   1.2515702660546630        1.4535885445722447        3.6984746224175544     
 atom  0.98790037029676214        2.6609153020027003       0.62998389126594390      C 
 atom   2.2396704707790378        3.3059391011322381        2.8413234087098171      S 
 atom  0.98755971725800329        4.8001953664301400        2.2676386463202012      S 
 atom  0.98792792807051766        3.9916139227994267       0.78038003534008860      C 
 atom   2.2402257987880034        1.9017600456500232        1.4363758921809124      S 
 atom   3.4920332944451293        1.9828151136088885        3.6722212902487206      S 
