 # 9 angstroem -35565.4800630224
 lattice_vector   2.2976085152628549        0.0000000000000000        0.0000000000000000     
 lattice_vector   2.1606256802935223E-004   2.3597005984826005        0.0000000000000000     
 lattice_vector  -1.7793494018433987E-002   1.1807306790265790        7.5054555678580650     
 atom  0.58853073776700182       0.96430159537547289        2.7654373703996868      C 
 atom  0.60851561059807713       0.96449980618736997        6.0274102138557444      S 
 atom   1.7329619071198106       0.96351120495871667        1.2651185666457010      H 
 atom   1.7543044792463429        2.1443430524205240        7.4936336860781063      S 
 atom   1.7570073034691178        2.1440226802873017        4.6747329817358771      S 
 atom  0.73984700652332780        2.1441958270602561        2.0160108813040605      C 
 atom   1.7392690021929464       0.96416132000221810        3.5559254104814841      C 
 atom  0.46099180423871750        2.1438717287479756       0.98660629763334251      H 
 atom   1.7375483123263451        2.1426094554222277        1.8248649042213176      H 
