 # 12 angstroem -4211.06738867802
 lattice_vector   3.6226356426491804        0.0000000000000000        0.0000000000000000     
 lattice_vector  0.97134392519486923        2.4686142508015210        0.0000000000000000     
 lattice_vector -0.83646045095663957       -1.0958442998442646        3.3496216108351740     
 atom   2.6433919961597709      -0.85600615651507461        2.6852880105999137      H 
 atom  0.94509472360349867       0.79056028671606338        1.6262360471165807      H 
 atom   2.9659761540497280       0.94871424117509762        1.9571569214711990      H 
 atom   1.0586067306188600       0.18933937837764797       0.28199142152530393      H 
 atom   2.0314477314258474      -0.19362585024024431        1.4512109752158355      H 
 atom   2.0531291394432367        1.7299588495328124        1.0109796972770229      H 
 atom   2.4745256792597821       0.58645841913573415        3.3012331931467891      H 
 atom  0.31678927698701453       0.56700047305055501        3.1256287371331339      H 
 atom   1.2728005458927434        1.7543382907853551        1.6681754478432389      C 
 atom   2.9528735722308035       0.19896802148111972        1.2683561978937743      C 
 atom   2.0566243065217367      -0.34167906855570962        3.3430343373527509      C 
 atom  0.72333669084655605      -0.34834600502113339        2.9432740235676009      C 
