 # 8 angstroem -47373.3517459461
 lattice_vector   3.9185753623520720        0.0000000000000000        0.0000000000000000     
 lattice_vector  -1.0215698721292492        5.7472119597409055        0.0000000000000000     
 lattice_vector  -2.4587355189141698E-004   7.9625937020270053E-004   2.1425909699850112     
 atom   1.3969575660777163       0.49880437602540356        1.6084362385883733      C 
 atom   1.0959232294400614        2.1612806182998021        1.6084902419660791      S 
 atom  0.10447421897046984        4.0177548080591734       0.53791160566397611      S 
 atom -0.19659393721836391        5.6802088888000180       0.53736541305453411      C 
 atom   2.7842034976553305       0.50285375202249161        1.6087291947119464      C 
 atom   2.0349965346861643        4.0202084133883806       0.53617007684798235      S 
 atom   2.3346877737526226        5.6760637826774252       0.53779074093811097      C 
 atom   3.0839783897044990        2.1587834130087087        1.6097992123271794      S 
