 # 24 angstroem -18206.9203726682
 lattice_vector   7.4089161096065119        0.0000000000000000        0.0000000000000000     
 lattice_vector -0.44550447290463357        2.5645009227811175        0.0000000000000000     
 lattice_vector  0.58306075936570834       -1.1133778515735515        3.3793062903935631     
 atom   3.6563450745325428      -0.82579015495871100        2.6109983682043709      H 
 atom   1.4103731881442989      -0.72413345538313167        2.3651326765717626      H 
 atom   6.7645235610680290       0.57748245831314238        1.1004228050750233      H 
 atom   5.1939994718526776        2.3979018333889948       0.43351996570188406      H 
 atom   6.5058810009890058        2.9544408130632228E-002   3.3180302806395012      H 
 atom   3.7399589479865116       0.64346577623225387        2.0418094325133636      H 
 atom   7.1917244753803651        1.7367470669257661        1.5139139441147416      H 
 atom   3.2932396591569995       0.90271630154850113       0.62121661370921344      H 
 atom   5.2957391647240968       -1.0948783912657147        3.3616232795988576      C 
 atom   5.1594105717297110        1.2596160007523458        1.7792514978409069      S 
 atom   3.1910617799668319        1.9145641561903664       0.60278102553633284      C 
 atom   7.2253042555944598       0.72350928411153836        3.0639367234777799      C 
 atom  0.53654248379973069       0.18800310200723713        2.6053552335280736      H 
 atom   1.1727433518885426        1.5572786953857622       0.80700894517935851      H 
 atom   6.7464690740734383        1.4396966160001337        2.4980230526036182      H 
 atom   5.9068416702640043        9.9257474285697408E-002   1.9157050294099345      H 
 atom   2.3511115639500040        1.9548827306705612        1.5336277147252263E-002 H 
 atom   1.8475880383746839       0.83035439608668427        2.7659937514798560      H 
 atom   1.9575550926549485       0.36961183891390770        9.3223148805977568E-002 H 
 atom   5.0886880568692154       -7.6378398844001702E-002   3.2591374942842508      H 
 atom   1.9458693456418570       0.11384236123887889        2.0354139221125549      C 
 atom   1.3197383333767680       0.55586821711856982       0.87169389024946908      C 
 atom   7.5022647853777800       -8.9799585280977409E-002  0.81795217787812047      C 
 atom   3.2650034066590372      -0.24665560452667309        1.8706413718141619      C 
