 # 24 angstroem -18206.9585121376
 lattice_vector   7.4200940454726565        0.0000000000000000        0.0000000000000000     
 lattice_vector -0.43263973680650725        2.5647745554761681        0.0000000000000000     
 lattice_vector  0.66296257761515009       -1.2129715110442603        3.3833545974320272     
 atom   2.9659675962310654        1.5285945741378013        2.5034841624213078      H 
 atom  0.84286864686587692        1.7078855620844786        2.2789294647849627      H 
 atom   6.5728860116815078       0.50183099389272978        1.0814251559577335      H 
 atom   4.9654642743743409        1.8198001232834013        9.5810477318873752E-002 H 
 atom  0.41917735621377317        4.7405657261472356E-003   2.6077196014047819      H 
 atom   3.7133761974341444       0.45799994514388970        1.9255425282794316      H 
 atom   6.9820773177609778        1.6858696150957182        1.5332225682255802      H 
 atom   3.1024368279285102       0.72360302899758311       0.46020209497201991      H 
 atom   4.1015154579431927        2.3914362050877558        5.7898399759072357E-002 C 
 atom   4.8910607345759356        1.6767136073989439        1.9274483402346769      S 
 atom   2.9708793257312665        1.7265155769234060       0.50818468563453212      C 
 atom   7.1062287580931649       0.51473037097626173        3.0726655940891385      C 
 atom   6.5827734397192232        1.1626597619176582        2.4539751705134369      H 
 atom  0.96637288770794216        1.4538850912996433       0.74076315362133505      H 
 atom   5.8627839273827469       0.92657461088256454       -1.5774380937318133E-005 H 
 atom   5.6350554136641655       0.42752392433019426        1.8753462000345755      H 
 atom   2.8180575546164550       0.63578989905502348        3.2914296325097054      H 
 atom   1.6722615728164012       0.67602241990522982        2.7251029528572723      H 
 atom   1.7218357616780662       0.27514257357697325        9.5976986489160424E-003 H 
 atom   4.6427746356789736       0.64806821718183794       0.70248893277258695      H 
 atom   1.7853799224037386        5.7087036274437843E-003   1.9581115332392383      C 
 atom   1.1164475526177176       0.45285342933574185       0.81556431180817002      C 
 atom   7.2985854450709216      -0.17075242333066432       0.80047581971260717      C 
 atom   3.1001374830400437      -0.37535256136292694        1.7820466038170550      C 
