 # 24 angstroem -18206.9994620833
 lattice_vector   7.1268382911834287        0.0000000000000000        0.0000000000000000     
 lattice_vector   2.4697335882381211E-002   2.6198739068050818        0.0000000000000000     
 lattice_vector  0.42835275778242776        1.2466010247693626        3.3959596054338581     
 atom   5.5371304104868377        1.4026619466786421        2.5365482767426433      H 
 atom   3.4165026783650978        1.3694460448912993       0.87264333296383589      H 
 atom   6.1640734610822658        2.6741030408655693        1.8562302078819697      H 
 atom  0.35164707231953463        2.9406415728846422        2.1634072352508587      H 
 atom   4.5283112641820997       0.65211352283686697        1.1982342528881869      H 
 atom   1.9833612185746774        1.7028428352255063       0.28658587917218642      H 
 atom   5.6757944478682418       0.35451023033065115       0.54664456158974206      H 
 atom   3.9723107794681711        2.5074394742815440       0.24847848718426815      H 
 atom   5.6380920008888795        2.9996522140679027        2.6811732967864765      C 
 atom   4.1272098885699853        2.5777906851752288        2.1834994547847950      S 
 atom   3.2048852857366117       0.61530150523085492       0.14069577864830374      C 
 atom   5.7740843728817914        1.3753060283201257       0.48277250604187977      C 
 atom  0.57804051617095920        1.3513007767282603        3.1636460887420108E-002 H 
 atom   5.1143896081335365        1.7850844082727557        1.1940931600509612      H 
 atom   2.3975135500961549        1.2935264645361351        1.5917820291076592      H 
 atom   2.9599369492080698        2.6564567713379792        1.6429687543468425      H 
 atom   7.2117134864528190        2.7291375323491671       0.64669827685143999      H 
 atom   6.9610058804569865        1.7102573171189908        2.7765442764063697      H 
 atom   1.8278636126683767        2.6823704063110609        2.2350330819448758      H 
 atom   1.4035025752622599       0.44256410075310149       0.92597614447849519      H 
 atom   1.7472507251518767        1.6610860206403073        2.3031551028904316      C 
 atom  0.43060563015235409        1.3266492571219097        2.0352870264517580      C 
 atom   7.0967326874007650        1.7216111943446448       0.76797651959340363      C 
 atom   1.9235526062701482        8.5052939044320833E-002  0.11391763266204021      C 
