 # 21 angstroem -44481.8622766009
 lattice_vector   2.5328989557038275        0.0000000000000000        0.0000000000000000     
 lattice_vector   7.5100316431668434E-005   4.0222747439556583        0.0000000000000000     
 lattice_vector -0.70687140258175052        2.0105837773470681        5.9218017215691905     
 atom  0.80906195899137456        1.9840592354554929        5.0693711135655048      C 
 atom -0.12746491984775557        3.9951821535499752        4.0552713549439314      S 
 atom   1.6115720230718513        1.9838450420593488        2.7854134354597520      S 
 atom   2.4469497895284249        1.9837459348412432       0.33831653288025426      S 
 atom  0.63774138954143667        3.9949266821069886        1.3520158031294818      S 
 atom  0.16862785044173320        5.2071811956725966        5.5239830528678651      H 
 atom   1.5624115192753105        2.9658794507347164       0.89048350118178754      H 
 atom   1.5465434579815343        5.1679127909232205        4.5596808353559268      H 
 atom  0.73651184865856345        5.0203373660285662        3.3584965909050455      H 
 atom  0.16917256519366825        2.7843802245061262        5.5238167389965183      H 
 atom  0.73667165841265647        2.9699623579110401        3.3578509772698979      H 
 atom  0.13496559225115226        1.9849400346133448        4.1553610225066393      H 
 atom -0.15129092630993607        1.0203546226925830        2.0859604842848776      H 
 atom   2.2599697902325784        3.9949482476965366        4.1091828998426698E-004 H 
 atom  0.84480402229650742        3.9977338092170247        5.1980128677946960      H 
 atom  0.82165555527715184        1.9838966799537929        1.6575338788402993      H 
 atom   2.0385427039627038        3.9933403193295254        2.7823065517620984      H 
 atom   1.0511120663362197        3.9967442964247182        2.6112804654701325      H 
 atom -0.15097015025076319        2.9472526003524719        2.0847984184001267      H 
 atom   1.5623739707853443        1.0023452188497279       0.89044864862068562      H 
 atom   1.5464014129474584        2.8248690119233686        4.5595967912201862      H 
