 # 22 angstroem -44493.6021204874
 lattice_vector   2.5181107248744263        0.0000000000000000        0.0000000000000000     
 lattice_vector   2.6875101102016873E-002   4.1667373066355813        0.0000000000000000     
 lattice_vector  0.14615494776479954      -0.87544431131500211        5.9184378523359813     
 atom   2.4865271911589937       0.90255440776685947        2.3280538821347472      C 
 atom   1.7960380919481664        2.9955061989916829        1.1790875928396425      S 
 atom  0.94078900724779557       0.90575646368621343        3.3840749913609580E-002 S 
 atom   1.9027580077503268        9.9494516203789008E-003   3.5857603413463215      S 
 atom  0.21497263088737067        2.0820006764489456        4.7429388318010153      S 
 atom   1.8650385726590277        1.0887475542340352        5.3183029261468926      H 
 atom  0.56592714487113038       0.19427642275159376        1.7889358697211375      H 
 atom  0.29356929255511599        7.3999069129943154E-002   4.8033703770217313      H 
 atom  0.93993846258904512        3.0095053747753853        7.5920549868351131E-002 H 
 atom  0.97335592390650894        3.1294867255431131        4.1913453902716427      H 
 atom  0.89299132618371635        2.0851052491998794        1.5950525943818656      H 
 atom   1.2926361444174883        3.6629574565485452        2.3363363968468729      H 
 atom   1.7782335408235039       0.95865968661529566        1.4955548086078978      H 
 atom   1.0781564944532918        1.0598038548502020        4.0198521764861450      H 
 atom   8.2078445286476981E-002   4.0583728675833717       0.58523853134921788      H 
 atom   2.5484136406894162        1.8910516705976788       0.59193782429714203      H 
 atom  0.17312223045479411        2.9991520999192431        2.6873883304188007      H 
 atom   1.8599331434448803        1.9647813614247385        2.6735080252108379      H 
 atom  0.87491757915065649        2.6337417288833382        2.9892214007694520      H 
 atom   1.9202028422148187        3.1505247144714166        5.2925459785238278      H 
 atom  0.73244485863233300        1.5110066340767645        2.7427520098967939      H 
 atom   1.9089611201717787        2.1881020780742477        3.6483646631661943      H 
