 # 20 angstroem -22862.257903321
 lattice_vector   3.8744957376583398        0.0000000000000000        0.0000000000000000     
 lattice_vector  -7.8366769035956175E-003   4.7839780781334236        0.0000000000000000     
 lattice_vector  0.92880014641712505        1.8454953976294014E-002   2.5205603184959009     
 atom   2.8337891000636168        3.1571982445908193       0.72576006302753326      C 
 atom   1.2132395592091507        2.2479920812498713        1.2718944834712078      H 
 atom   3.8446755452661323        1.4876723433474324        1.6447772482535268      H 
 atom   1.6923900695689313        3.4329944397103027        2.3412542433830592      H 
 atom   1.9334099193243772        4.3984064538552765        1.0964484419541809      H 
 atom   3.9010529859614556       0.73786440662179831       0.23975590680558487      S 
 atom   3.1387638738577244        3.1985153818314802        1.7166089782409037      H 
 atom   2.2512879909710248        2.3742778826379873        2.2312164065502635      H 
 atom   1.9295405151947496       0.91136709624810341       0.95171184483367044      S 
 atom   4.2994489298189649        2.3934513632445227        1.4553718255990504      H 
 atom  0.59788984173094839        4.2441489670653363        1.3904585689771467      H 
 atom   3.5120944306199910        2.7420311891986612E-002   1.7575166626901486      H 
 atom   2.8990361101584226        1.5626467925021699        2.0202748948717590      H 
 atom   1.8535368625241644        4.1605281623390473        2.4615723604565014      H 
 atom   3.3121114311531468        3.9751146289015988       0.27562360602472963      H 
 atom   1.7948681638052886        3.2155752729033713       0.63834828924532783      H 
 atom   3.1635719968975082        2.2733898610623027       0.28332969648444462      H 
 atom  0.59996527259608412        2.2385988949015538        4.7921199451460200E-002 H 
 atom  0.70100874742760055        3.5077482801198112        1.4162340570720497      H 
 atom   2.9137730939398261        4.5435423251051725        2.1399743601654428      H 
