 # 13 angstroem -22778.5535139223
 lattice_vector   2.5341364677919378        0.0000000000000000        0.0000000000000000     
 lattice_vector -0.79240376516406896        2.3965897890920740        0.0000000000000000     
 lattice_vector   1.0465827805265191      -0.66147002793842802        5.8610302316000933     
 atom   3.1199156766639398        4.5495745068759905E-002   5.2077375643410280      C 
 atom  0.55854451639383718        1.7744522200107906        1.4311595025172257      S 
 atom   1.5896658284675369        1.0137395341642124        3.0385703317946642      S 
 atom   2.2261411226708980        1.6659720451449096        4.5291624620264379      H 
 atom  0.59016608779963398       -8.0089139123176112E-002   3.1278933095177273      H 
 atom   2.2733036228869112       0.44337085742043980        5.6452310034277442      H 
 atom  0.10858884334185949       0.25754463530765609       0.12469488750806938      H 
 atom   1.1063663441387157       0.87818453565286281        4.8734862921197255      H 
 atom  0.81923342078518913        1.6737655594625158        3.8835365285607870      H 
 atom   2.2432182247453785       0.49457666532787936        4.1116417216265493      H 
 atom   1.7247111647240005       0.98851433886689311        1.0941019315263127      H 
 atom   2.7062307207762073       0.19923632725531334        1.6346302944324513      H 
 atom  0.34075921008041588        2.0533928594798967       0.15123516458830688      H 
