 # 22 angstroem -22886.1276342487
 lattice_vector   3.8529725564042865        0.0000000000000000        0.0000000000000000     
 lattice_vector -0.46910763023551455        5.2198181993994295        0.0000000000000000     
 lattice_vector -0.82631940741981913       0.56689284818329688        2.4612555594962227     
 atom   2.5593956549478669        3.4981233326812378        2.1310572591291770      C 
 atom   2.9341924995947011       0.68310288546801301        1.3597747345080013E-002 H 
 atom   3.0946360021720389        3.7027970564185169        1.2758864455873997      H 
 atom -0.25180297420495656        1.6489512364242587        1.2045601724167969      H 
 atom -0.11085241636117439        5.1050619065911516       0.74772978563428771      H 
 atom   1.3495595605750812        1.2888915356461448       0.71879359190616587      S 
 atom   1.2838617177535438E-002   4.3865158880198178       0.59584432451570590      H 
 atom   2.1235761277999985        2.5371869805598957        2.1185794018287325      H 
 atom   1.1310006585637158        4.3312795041526062        2.1838983012265003      S 
 atom   1.5757239032421697        2.9792804786192710       0.70734300912202819      H 
 atom -0.42137014334482958        2.2524305747553020        1.6811861328319433      H 
 atom   1.3971628807522365        5.0444766182530083        1.0889189864874369      H 
 atom   2.5677818022757646        1.7477583984592027        1.0870306884069532      H 
 atom  0.92953933423463142        2.3309041652224254        1.8232186100298351      H 
 atom   2.7984916807362263        5.1860077201328787        1.5360561440863287      H 
 atom  0.74218350004360845       0.84034637298925452        2.0301458670733741      H 
 atom   2.4544036249765480        4.7570806371361378       0.41748121290573698      H 
 atom  0.57461399880287778        3.3145821024879245        1.4904155157279786      H 
 atom -0.20970264087002854       0.93829819027903039       0.22393783374485249      H 
 atom  -4.0051695511206548E-002   4.9516140576223862        2.2003341153100728      H 
 atom   3.0142506573616465       0.61539886510700570        1.7441957901560303      H 
 atom  0.19236164368610539        2.9246950465686092       0.47589672305988073      H 
