 # 22 angstroem -22886.2529124278
 lattice_vector   5.0698318299611245        0.0000000000000000        0.0000000000000000     
 lattice_vector  -1.6797365761162280        3.7851617370267339        0.0000000000000000     
 lattice_vector -0.69413843368594186      -0.33218989911085417        2.5767248921470638     
 atom  0.82241267804606533       0.25564209504778646        2.3626689318479892      C 
 atom   1.5034603315895629        3.7411199921032985        5.5675639931951001E-002 H 
 atom -0.42749384149425984        2.7057004104876392       0.51287432988392789      H 
 atom -0.78885598915191835        1.6482929788260541        1.9033609168872778      H 
 atom   2.7453568635286638       0.83147063837337154        1.4458188561059466      H 
 atom   1.1755557611649508        2.5177803828125471        1.1987045058491681      S 
 atom   1.1311719208052196       0.41399687016036552       0.72923426061385255      H 
 atom  -2.4649006073573350E-002   2.0234381937978605        2.1550284662717587      H 
 atom   4.1303620892137287       0.88348386186177041       0.38896863645208801      S 
 atom   1.5946766821179584E-002  0.52644057923194920        1.7755984442592576      H 
 atom   2.2751586867521487        2.5284072733800806E-002   1.2043928605156644      H 
 atom   2.1881108868626047        1.5395641750777513        1.3268721139986173      H 
 atom   1.5094588423190807        1.0213617794275078        2.3801530410005656      H 
 atom   2.5490309153220676        2.6136778931038465       0.20895478449868912      H 
 atom   3.1758837348809794        3.4284678675864377       0.45808925305399784      H 
 atom   2.1762373049935650        3.5672347055381119        1.6014235762162230      H 
 atom   3.0405166216545338        2.8484012728059347        1.8368659507020839      H 
 atom   3.1721736556175011        1.9351762014656340       0.29089471777533837      H 
 atom -0.46738303598920544        3.1420881421454050        2.0252333790109196      H 
 atom  0.29857506736950989        1.4861316023766626       0.75362202308504178      H 
 atom  -1.0289442843160361        2.8065580619730381       0.91426033881998137      H 
 atom   3.2488297102072150        2.1384327544455979        1.7727749369333876      H 
