 # 21 angstroem -44482.0962913158
 lattice_vector   2.5333113185277440        0.0000000000000000        0.0000000000000000     
 lattice_vector   2.8490968005358899E-002   4.2295433378292326        0.0000000000000000     
 lattice_vector  -1.2315468154548388        2.0821920984046325        5.6755548793401767     
 atom  0.66111190723613844        1.8670633298417116        5.0442623284543249      C 
 atom   6.5479154852589982E-002   4.1253080313659298        3.9614566986553159      S 
 atom   1.6919013980335211        1.9896744754485727        2.8095838787615226      S 
 atom  -8.8243375608359403E-002   1.9876520378684934       0.48756220772684211      S 
 atom  0.83101321333483735        4.0890798032318818        1.6528806021204987      S 
 atom   1.7106133791166249        4.0696856031420845        2.8350631037975433      H 
 atom  0.79816749743092408        2.8913426928871075        4.9021999771496549      H 
 atom   2.3005914494153727E-002   3.0268117182524965        2.2226807146417835      H 
 atom -0.62417630981783379        3.1268541059760557        4.5290885663118203      H 
 atom  0.79945969238540937        1.9581330069017437        1.5879740020725508      H 
 atom   1.3347752397413097        5.4496618750883741        4.5462546892405431      H 
 atom -0.49045213871330828        4.6856356367518561        5.2093212058674032      H 
 atom  0.88250503436113548        5.1707877087760590        3.3119525415546911      H 
 atom   1.6479088362085084        3.0509035656270260        1.0400401555480165      H 
 atom  0.83450172273716772        3.0242349980823184        3.4476318991542225      H 
 atom  -4.0148637895173443E-002   1.9409137708160784        4.0662245296888271      H 
 atom   1.6885587215975251       0.87921257514322393       0.99145889656897435      H 
 atom -0.15333527603261274        5.7780870556729678        5.5615497019010238      H 
 atom  0.74301549219270180        1.0264498829107289        4.6341747375143374E-003 H 
 atom  -5.9980505060612740E-002  0.93544782463392417        2.2242879013930543      H 
 atom   2.4817845210519636        4.0831953429864178       0.35246603390140968      H 
