 # 13 angstroem -22779.3815685801
 lattice_vector   2.9358833561532642        0.0000000000000000        0.0000000000000000     
 lattice_vector   1.5102541099330843E-003   2.9364076524003675        0.0000000000000000     
 lattice_vector   1.4662717717191180        1.4698541693414402        4.1265680928979656     
 atom   2.3800208466639949        2.9546897486832941        1.8798240557812373      C 
 atom  0.85921811301528783        1.4344206765549328       0.43482354594650996      S 
 atom   3.7922590037031134        1.4310246984489710        3.3355447952243575      S 
 atom   2.3533414691502852        2.9232926449978636        3.0695447325059053      H 
 atom   2.3533087474081777        2.9271709669149497       0.73172091246861948      H 
 atom  0.91361331104749077        2.8993979365516473       0.58851297990594997      H 
 atom   1.6477891131647251        2.2209775270400978        1.8987881623866523      H 
 atom  0.72436292691411919        1.3004112762020856        1.8963672464790036      H 
 atom   3.3935195827798137        2.7463052646125918        1.8984467090015671      H 
 atom   2.1697227967865422        1.0314440957015421        1.9004114864908486      H 
 atom   2.3226614467250855        1.4854192676379470       0.58826729009894896      H 
 atom   2.3219913187480765        1.4875704578957165        3.1848532799844600      H 
 atom   3.8490933065745119        2.8951786918694773        3.1843260193514151      H 
