 # 22 angstroem -33689.5878869619
 lattice_vector   2.6608789197568270        0.0000000000000000        0.0000000000000000     
 lattice_vector   1.2182993735383212        3.7152369408786807        0.0000000000000000     
 lattice_vector  -4.7703544249799563E-002   1.1370073369364344        5.6279625525973866     
 atom   1.4490930498710202        1.5100340054672541        5.1070484345215078E-002 C 
 atom  0.26060557818395752       0.98888864458578529        4.3539226193758074      S 
 atom   1.5450749309075924        3.7083389399022662        1.7166385164170304      S 
 atom   2.8417328811417524        3.3193557318048814        3.2702496526258327      S 
 atom   1.6143602252230356        2.9542996328381572        4.7140075139775703      H 
 atom  0.25470050231170516        1.1319480550000331        2.9017190996783446      H 
 atom   1.5820176027266002        1.5602133615666964        4.0369649913442487      H 
 atom   1.5736249707354790        1.4397533350980374        2.5944187637207738      H 
 atom   1.5723509850926032        3.6073952349759653       0.12054655847105333      H 
 atom   1.5175552691971379        2.0397021330066387        2.0775763300759591      H 
 atom   2.9360893732667872        3.0721402186773954       0.87347177537178000      H 
 atom   2.9948249685051160        2.2295968172562546        1.5122387865797950      H 
 atom   2.8598810711661820        2.0657630045201483        2.7051082392602823      H 
 atom   3.0844570307680041        1.4540134541590215       0.16894054443232095      H 
 atom   1.7807506618295657        2.2347300609730989       0.71828580671927877      H 
 atom   2.7210746414459703        1.4973032930815910        1.4837112409344724      H 
 atom   1.5234117990315199        2.5902658567095753        3.5047091174999370      H 
 atom   2.8546438600020463        2.9756634175415888        4.1717651724433265E-002 H 
 atom   2.8289498937482858        3.8271463121724416        4.8515163381213515      H 
 atom   1.8714976890613786       0.56835695062341784       0.15829627397811263      H 
 atom   2.8669400537946266        2.3771345648767612        4.4155077787045247      H 
 atom   1.4949886961083059       0.71965705598423757        1.5347238735311337      H 
