 # 22 angstroem -22886.2365517666
 lattice_vector   3.9518797147299702        0.0000000000000000        0.0000000000000000     
 lattice_vector  -1.2259518449029372        5.1648733870107950        0.0000000000000000     
 lattice_vector -0.76675261950360485       0.55401210590646266        2.4548886959283891     
 atom   2.3255275829503765        3.2560906193638308        2.1256808271303442      C 
 atom   2.8095492009826617        1.5049500320389202       0.96424849223938935      H 
 atom  -1.4476797978096896        4.2231542643468938        1.8057287696811792      H 
 atom   3.1497733168461481       0.51933827922517550       0.22137538185030603      H 
 atom  0.29831809532584014       0.40665638882493998        1.6146325840904254      H 
 atom   1.1781580056397187        1.2314385172716686       0.74408758857073043      S 
 atom -0.38111547966549369        4.2828710778092862       0.92309610294671895      H 
 atom   1.5958154546137504        2.7847607601530591        1.5579348625037530      H 
 atom  0.38506441059482999        4.4756478181691577        2.3292771003367485      S 
 atom   1.3669730328430361        2.5168368938243262       0.11370769715195155      H 
 atom -0.74599257335887259        2.7138129273549407        2.1127396234837850      H 
 atom   1.2846303849188736        5.0496454097102674        1.4552991108098765      H 
 atom   1.9573830780938188        1.3578535540865453        2.0015691336269477      H 
 atom  0.30963445272582107        2.4684737377579520        1.3383177014053778      H 
 atom -0.72494317166999467        1.3527876001251347        2.4285999172749482      H 
 atom  0.57313982341935754        5.2191305678106854       0.29442414422073737      H 
 atom   2.2058725579555571        4.2625638738919518       0.61864194424034291      H 
 atom  0.27679440413501233        3.2259575587294407        1.0651298849755972      H 
 atom -0.48219423420562846        1.6336757925025254        1.3137138137679454      H 
 atom -0.82838042246365562        4.6353123560808998       0.37254465062391262      H 
 atom   2.1745296943775978        5.3872056140731006        1.5238813222141399      H 
 atom   2.8080559446348903        2.8424824587001436       0.65136910038906148      H 
