 # 20 angstroem -44469.2566487092
 lattice_vector   2.6457039389673507        0.0000000000000000        0.0000000000000000     
 lattice_vector   1.1241875116290088        3.7290586315872316        0.0000000000000000     
 lattice_vector -0.19438438664137528      -0.10181525786179332        5.9582951305552818     
 atom  0.78726412205584106        1.0218389718373480        1.4119637882949208      C 
 atom   1.3510230074316116       0.13018207798760439        3.8279776965983494      S 
 atom   1.5813239514289046        1.3589626798666181        2.0357356248564589E-002 S 
 atom  0.57931801031373054        2.0128281612292134        3.5573195989611244      S 
 atom   2.8312448820117404        2.9279565922821189        5.9184069226650209      S 
 atom   3.0046156109143571        3.2076276878958572        1.5022031248497612      H 
 atom   3.2304002603471451        3.0670246372873828        2.2617471691253659      H 
 atom   1.4242096473417445        2.3943177529538389        4.5806779491511733      H 
 atom   9.6567246202797150E-002   5.1123426762876678E-002   4.4892617506858983      H 
 atom   1.7693130355743116        3.5162938520069065        2.7287491250466753      H 
 atom   2.3686023063214434        1.5708310922215114        4.5276214127980117      H 
 atom  0.24351844817034160       0.14728577746784330        1.3146992251729541      H 
 atom   2.8306553552335076        1.8257801089708965        1.6728202308013227      H 
 atom   1.4596623416327583        3.4193475277417842        5.7515131841673393      H 
 atom   1.7906767384324922        2.6126850975846163        1.9436254983855383      H 
 atom   1.6029784405394940       0.89855527885594821        2.0537102244564354      H 
 atom   2.2941760506745856       0.56020349427250093        2.9071074383088105      H 
 atom   1.9317681891004559        1.9833090773677708        2.8453002805973524      H 
 atom  0.23085077484085956       0.87739879583814562        5.3391031799975046      H 
 atom   1.8075956491134531        2.5908487474965272        1.1602731703152172      H 
