 # 14 angstroem -11987.3089969665
 lattice_vector   3.7738683529616197        0.0000000000000000        0.0000000000000000     
 lattice_vector -0.95924472919601267        2.5115709174313388        0.0000000000000000     
 lattice_vector   1.7746754544478160      -0.72634587741111412        3.3378832956760629     
 atom   2.7775881872984778       0.99865240741214656       0.76003576336632495      C 
 atom   3.2510847494898014       0.96988571389336242        2.8470521426749524      H 
 atom  0.98926440811816629       0.12675747093192657        1.0357791828760365      H 
 atom   2.6374778623917030       0.61174967864302343        1.6983511898623098      H 
 atom   3.9600741154932901      -0.11880343893604452        2.0648818902456636      H 
 atom  0.80668392784173593        1.5550083024150110        2.2389245258862998      S 
 atom   3.2737410874594928      -0.41708169331932526        2.3261197995731719      H 
 atom   1.1991211850315431        1.6590484356709805       0.99221976989110350      H 
 atom   2.2556179978892881       0.45250349409674590        6.4034913935225521E-002 H 
 atom  0.95998925377032440       0.14769683005060691       0.29620498064867384      H 
 atom   1.2720341725766363E-002  0.97436129255850323       0.57890567239407242      H 
 atom   2.4712407357441450        1.9856561963237556       0.77090064509723077      H 
 atom   2.5967509040189971       0.86402455439816861        3.2417189040140171      H 
 atom   1.6218102298997308       0.44251060714175500        2.4477872414574748      H 
