 # 18 angstroem -44445.3844467243
 lattice_vector   2.5474239839147415        0.0000000000000000        0.0000000000000000     
 lattice_vector -0.13209849930827422        4.0484915748423793        0.0000000000000000     
 lattice_vector -0.65908108481475003       -1.3915292791179867        5.4314586826910825     
 atom  0.31334685755695724      -0.29628751490805433        4.6805830476972972      C 
 atom  0.88966689331787518        3.1437052070405058        2.6866933845871266      S 
 atom  0.10927335004377756        1.1271714933397727        3.8706968118396214      S 
 atom   1.8203843110947742        1.0825270294658786        1.4999470691586771      S 
 atom  -3.7616667790399422E-003   3.1570248854085103       0.28695320000455860      S 
 atom   1.7286612619378650       0.15398255950951106        3.3002027130939977      H 
 atom   5.4271065992975258E-002   2.0836985354012416        2.1162607061975249      H 
 atom   1.7418722595336340        3.1013674482521365        1.5249961721533265      H 
 atom   1.7771829890355035        2.2096394824825154        3.3845800764093634      H 
 atom  0.97628108178372197        2.0838907542168688        4.5695906705653337      H 
 atom  0.97334469584751659        1.1259260160276621        2.6699996019092147      H 
 atom  0.12927059857478282       0.10387309256835914        2.0727025692781140      H 
 atom   1.2049196481703670       0.64408287959460497        5.4006133214670804      H 
 atom -0.25177997680506281       -1.0243107227707946        4.1612209218786811      H 
 atom   1.0650273029032271        9.4687428129451717E-002  0.79322276764865207      H 
 atom  0.85000575579204130        2.1911350531957998       0.90747271757859049      H 
 atom  0.38870814037081480        1.1728607136222153       0.15305246558582597      H 
 atom   1.2173724261625254      -0.74692791010760051        4.9200287696247216      H 
