 # 19 angstroem -44457.1347212432
 lattice_vector   3.6591835059535489        0.0000000000000000        0.0000000000000000     
 lattice_vector  0.74238691845788796        2.5152431384489775        0.0000000000000000     
 lattice_vector  0.37853014137977609       0.55843619230225694        6.2222489455619705     
 atom   3.0362860138638208        2.8039954009121941        5.1482200246117849      C 
 atom   2.3984569445758153        2.6923079508744596        2.6861520756875583      S 
 atom   3.6425405672637301        1.6433686889932204        1.4021376083373516      S 
 atom  0.88238822641102954        1.6983127916793390        3.7702033094841712      S 
 atom   1.0876729919342536       0.66807960180985915        5.8893600714418678E-003 S 
 atom   2.2873236544396591        1.1039125981762663       0.46398772268073057      H 
 atom   2.8555088589769482       0.98494977617252577        4.6160240217312820      H 
 atom   3.9017374019352893       0.76200187871887703        5.7913299476207829      H 
 atom   1.2357773358908779        2.1441940739987477        1.9065315809500383      H 
 atom   2.9235181310743186       0.51652479810872354        3.2714193047068774      H 
 atom   3.5584815314621498       0.64438340011401019        2.3535235807943300      H 
 atom   3.5525831597739543        2.0917209034170741        5.7044136196262967      H 
 atom  0.47050921964788200       0.68946409946386988        4.5829509108074253      H 
 atom   3.0585382614903387        1.5563694400394010        3.4539223961839296      H 
 atom   1.9905067151280580        1.0924498061015477        1.7585962522322478      H 
 atom   2.9174253187970987       0.21463242080632436       0.55342101881301753      H 
 atom   2.4236330136123181        2.2806771688575784        4.4721697897192447      H 
 atom   1.2757535718791926        2.1466780081983825        5.2287423656680110      H 
 atom   1.8932395681300427        2.2211306828118293       0.92683695549661005      H 
