 # 19 angstroem -12046.7357031757
 lattice_vector   2.6521011500922937        0.0000000000000000        0.0000000000000000     
 lattice_vector   1.2336578968828477E-002   4.0776396749693120        0.0000000000000000     
 lattice_vector  -1.3091161039793473      -0.90104580891636443        3.6053057598251859     
 atom  0.26642401289856443        2.5286429524219027        3.3965217495319986      H 
 atom   1.3143785262087690       0.77864662687517017       0.13663295566806757      H 
 atom  -4.1145111068646503E-002 -0.12291550207511556        2.9468315852067142      H 
 atom   1.2490969598335524        3.3056975277284075        2.1380052146717645      H 
 atom   1.0846539118964347        2.1659594402407287        2.1009189806070094      H 
 atom   1.2617240344054383       -3.1824950514636442E-002  0.79852852735015012      H 
 atom -0.28920320916116410        2.5259147768848482        2.9173399865224847      H 
 atom  0.94382245037036294       0.60223038870622791        1.8532610948071888      H 
 atom -0.17720087228391193        2.1482686590462037        1.3751012066837334      H 
 atom  0.20637137299458788        1.2366336196165881       0.59422641526064590      H 
 atom   1.0596663167505085        2.5394838120775800       0.48170987344254529      H 
 atom  -1.2548084891466980        2.9781339189907565        3.5143360411720410      H 
 atom -0.27827528694699849        1.1199041174729110        2.6144172527501048      H 
 atom   1.2500629316829073        1.8514722166290218       0.68351889417439327      H 
 atom   1.2245839061008146      -0.39592527380332160        3.1583389864625135      H 
 atom  0.91675546448584866        1.2313286745321010        3.4809421687687006      H 
 atom  -9.1415995973305117E-002   3.4672140781301106        1.4336575326232610      S 
 atom   1.3525641141913471        1.2634067495326005        2.5388253746142970      C 
 atom -0.32194275201395295        1.0651601130735451        1.1215197010665323      H 
