 # 17 angstroem -22826.4754997648
 lattice_vector   2.8991628717927660        0.0000000000000000        0.0000000000000000     
 lattice_vector   8.7723369721286166E-005   2.7511856514163235        0.0000000000000000     
 lattice_vector  -1.4452885033202187        1.1680622101968077        5.3225279132712018     
 atom  0.32442022154435973        2.3433275768899549        1.0289101425878560      C 
 atom   1.7767095799888086        1.7824796110679748        3.1449658640225038      H 
 atom   2.2381652451963689       0.83404789557631809        1.9283496366572512      H 
 atom   1.7762356915582014        2.5131809010591097        2.9006334033580345      H 
 atom  0.32505292817579989       0.61441315757913317       0.85809706452908296      H 
 atom  0.32789120731355642        2.0029755135894831        4.8533361745849524      S 
 atom   1.7746108634079194       0.91491315369432979       0.92773238693892135      H 
 atom  0.32294423628429025        1.8716199605228359       0.11188666684581385      H 
 atom  0.32721289112258534       0.81397903996611487        3.0055662718718694      S 
 atom   2.3586057219948984        2.1141640079942556        1.5518027355001391      H 
 atom   1.3157641563896656       0.83280524434585601        1.9263091402418115      H 
 atom  -1.1217937967318941        1.8323450695238650        4.6467818791119999      H 
 atom   1.1904638359660047        2.1125186303163601        1.5493099017062011      H 
 atom -0.72207995866876284        3.2875030209889080        4.1567773855821919      H 
 atom  0.32804110565578470        3.4226153608933565        5.2370001673649718      H 
 atom   1.3776636981415138        3.2876284077351210        4.1568989258961704      H 
 atom  0.32691663932370185        2.2080488652055070        2.7818627377227840      H 
