 # 23 angstroem -33701.5282773701
 lattice_vector   3.9525403040048945        0.0000000000000000        0.0000000000000000     
 lattice_vector   1.0544776691230509        5.6911063242927149        0.0000000000000000     
 lattice_vector  0.82574410804459641      -0.17648989008796237        2.5618995045875832     
 atom   3.5445308261453183        5.0100702051345944       0.38777713646586842      C 
 atom   3.1763874149991449        2.6541074534410165        1.6823112072521409      S 
 atom   1.6833038351107346        1.4085081467934013       0.63058747269371140      H 
 atom   1.8353316495550136        1.8011000091682841        2.1289375623642535      H 
 atom   5.1507307025445392        4.7400644029564276        2.2749593935324715      H 
 atom   1.3891645365990355        3.3563824933380113       0.88063859000389366      S 
 atom   2.5251364919232508        4.9850941675917664        2.1509115560268821      H 
 atom   3.3797102142962232        2.6980505346227579       0.11146913176675156      H 
 atom  0.47107484956946710       0.54244439869693273        1.0481869111283650      S 
 atom   1.4891232758098791        4.8114646241250973       0.92039958798494670      H 
 atom   3.2916715214734094       0.97525602201217276        1.8703650847248228      H 
 atom   4.4482449838529776        2.1410522409727459        1.0264516227991831      H 
 atom   2.5011667118312748        1.5237386122564469       0.55758290964306967      H 
 atom   2.8703025602987542        4.2225320234851900       0.34615056930464394      H 
 atom   3.4347716805842583       0.91465738045975675       0.19112070375460510      H 
 atom   1.9857015495210835       0.18859498259887791       0.15207770911636798      H 
 atom   2.4385736768663175       0.73362721597364555        1.6763500673420921      H 
 atom   1.7179587808364516       0.37867985767568535        1.9410425679725560      H 
 atom   3.9070772403073786        5.1043597611892562        1.3570770444228384      H 
 atom   2.5311837039909144        4.2832445090522704        1.9085196748686830      H 
 atom   5.1858068876827534        3.2896191906031453        2.3935304082998918      H 
 atom   3.8991154542106026        3.7828227984860510        1.4714186416319479      H 
 atom   5.0283087983366013        1.7685661045796701        2.2051622892789560      H 
