 # 20 angstroem -22862.8001636014
 lattice_vector   4.9401221172610583        0.0000000000000000        0.0000000000000000     
 lattice_vector  -1.5671618594473531        3.7009631379712422        0.0000000000000000     
 lattice_vector  0.80194882794204603      -0.73239487411131698        2.5959620353929442     
 atom   1.3107026331724760       0.80916675159545304       0.68753920732517715      C 
 atom   2.7235300462947718        1.0747042898522465        1.7994790349925249      H 
 atom   4.1477264634372153      -0.65957246331233943        2.5538514709526403      H 
 atom  0.42209524727843689       0.35492710211697065        1.0024974925863883      H 
 atom   5.4840359965325254      -0.42106348910018526        2.1818820925269491      H 
 atom   3.7221278382829754      -0.20725959612150638        1.2927845181056616      S 
 atom -0.32306938588925910        1.2428637134740885       0.26616470489632360      H 
 atom -0.91035124287181191        2.7449221874211323       0.49206742540055132      H 
 atom -0.40608456511742225        2.2056512879722328        1.7173792185059018      S 
 atom   1.8823029877470363       0.38059099519553496        2.3133022645894732      H 
 atom   1.0409584291674392        2.6375617793002339        2.6508218454138324E-002 H 
 atom   3.3490805681026727        1.4352745733268100       0.65271724081798932      H 
 atom  0.82612955504219510        2.8314892518507526        1.5892567547501932      H 
 atom  0.16850946142660453       0.71694468951582724        2.1920718826905752      H 
 atom  0.34549974275619894        2.4583658549896441        2.0647367110993357E-002 H 
 atom   2.6600475205689897        2.3808160432714942       0.74886449110032671      H 
 atom   1.5354577875244391        1.6347332031044031        1.2660700046101252      H 
 atom   2.7858499909753003        1.4720204322317878       0.14888328411778254      H 
 atom   2.0305155255099563        7.0723141282108909E-002  0.60855306102786011      H 
 atom   2.9314676474829664        1.7799265148294938        2.0372866139742345      H 
