 # 16 angstroem -12011.4866540108
 lattice_vector   4.9503639919036679        0.0000000000000000        0.0000000000000000     
 lattice_vector  0.64110148434603098        2.5570452993704862        0.0000000000000000     
 lattice_vector  0.71642758397480133      -0.19525320684482914        2.6906718994399341     
 atom   4.4410938297540774        1.5996383377666797E-002   1.3680732021707200      C 
 atom   2.3955156768443784       0.56572416594981245        1.7673842736738044      H 
 atom   2.1993523746386940       0.75997006224746255       0.11896011088356997      H 
 atom   3.4836204129421584        1.8124257255941287       0.53364811329620987      H 
 atom   5.7250767718066280        1.1868259272395136        2.5135672745386684      H 
 atom   1.1040175807284891       0.23877707474259496        1.6475176883338836      S 
 atom   4.1349442954317190       0.52146780631395628       0.51766245766856223      H 
 atom   3.9215946870246969       0.41425717557318509        2.1784939263475125      H 
 atom   3.3873434751976887        1.8579121691296434        2.2600562911277677      H 
 atom   4.6526730151847939        1.5304898495424759        2.6628016320194159      H 
 atom   2.1918482899137981        1.8615004068728953       0.83326797836295075      H 
 atom   4.7557763208411208        1.6087074609544745        1.2439811720003107      H 
 atom   2.7334037505941713       0.53695221537596394       0.63609714995288547      H 
 atom   3.2718831834180317        1.5225439412564596        1.6176197457520263      H 
 atom   1.9316699660639554        1.9448520988996549        2.6228200568581079      H 
 atom   1.0928750560769422        1.0626523413073101       0.59508661300531884      H 
