 # 30 angstroem -33785.0231682971
 lattice_vector   4.7652752635427378        0.0000000000000000        0.0000000000000000     
 lattice_vector  -7.5690791409541288E-004   5.7550386424914510        0.0000000000000000     
 lattice_vector -0.32435798362568730        2.0501658375340296E-003   2.5121389091132889     
 atom   2.0449535218466797        3.4762766483594643        2.0586639328166969      C 
 atom   1.7251107099915166        2.5971106578002319        1.5889838966385252      H 
 atom   2.6887849687150176        2.1123823128496708       0.64177556473755093      H 
 atom   1.7240340880482015        4.3558273697845378        1.5899454921956166      H 
 atom   3.0257283001813722       0.59628428403680800       0.99881926316331082      H 
 atom   1.7256453112219883       0.59930568331805489        1.5667587508188103      S 
 atom   1.7313700490531780        3.4726203857708047       0.41930301727069219      H 
 atom   2.2373645841399914        5.3865452833352609        2.3450443024771523      H 
 atom   3.2328642167555341        4.8656562252107154        1.2041129697056663      H 
 atom   3.0393924263738978        3.4704599988107963       0.39404854918048232      H 
 atom   2.2380406866990454        1.5667768087687692        2.3444557321192248      H 
 atom   3.2349270667067467        2.0835902774516097        1.2050672368653064      H 
 atom   2.6877860436062067        4.8314577754293389       0.64017307105357169      H 
 atom   1.3893782553846303        5.0644579669930270       0.72034172150971509      H 
 atom   1.3900334462276422        1.8845666619763404       0.72011614571821891      H 
 atom   4.5498437978316177        3.4750757620416319        1.0529816866048098      S 
 atom   4.1699755110209793        2.5375603858525579       0.10281364208284907      H 
 atom  0.38439091309420970        2.2655821554075515        1.7396482863823917      H 
 atom   4.1679255125268746        4.4115583471201347       0.10289384243465448      H 
 atom  0.53169763646738211       0.59944891243893761        2.3273146181092601      H 
 atom   4.3022582042774902       0.59747136865756212       0.34976063425741349      S 
 atom   3.1514954848311785        3.4792834281847833        1.6529009085882707      H 
 atom  -9.3043378738082896E-002   5.4047976548572096        1.2150660508865112      H 
 atom  0.90399185565766449        4.9026151712270227        8.3273261608301008E-002 H 
 atom  0.79907772616267736        3.4757216277356471       0.16538819402213989      H 
 atom  -9.3552010518336837E-002   1.5456989495666134        1.2158280814421234      H 
 atom  0.90470669730496944        2.0478213102686995        8.3443427965233213E-002 H 
 atom  0.38266234848443875        4.6867924524880484        1.7391964328468794      H 
 atom   3.5168870994744270        5.1150046140594645        2.0858431030277957      H 
 atom   3.5156596580044424        1.8402363976590546        2.0865887194402259      H 
