 # 32 angstroem -44612.1850316657
 lattice_vector   6.1900490352646438        0.0000000000000000        0.0000000000000000     
 lattice_vector   2.2762544471349879        4.8321778456126809        0.0000000000000000     
 lattice_vector  0.54256865071538118      -0.21571552583000736        2.5837804782967333     
 atom   3.6259820971971464       0.13095029420851231       0.62134325505145827      S 
 atom   2.5109992852078067        4.7851014257684579       0.10178292233517955      S 
 atom   8.2672919308004857        4.0633625328463427        1.6132756393810972      H 
 atom   5.4529436415909505        3.3460947040714637        1.9215785740948494      H 
 atom   1.9441012064583354        3.0840023667004863       0.22949696774506267      H 
 atom   3.1332069799494784        2.3674482017936014        1.7219026682893568      S 
 atom   6.8920169519544077        3.0560175935139888       0.18717703826853893      H 
 atom   4.5082100723272580        4.3571334004169300       0.71999702095056939      H 
 atom   3.2654230887239257        3.4781118092166623       0.84164211112360943      H 
 atom   6.5898349950537058        1.2210736549606631        1.2385332988497155      H 
 atom   1.8009059488252597        1.2693253665805884       0.88341691755862917      H 
 atom   1.7764676881380685        2.3165160928214208        1.2311271330454046      H 
 atom   4.2493685412855937        2.9035105658977125        2.2606142639936206      H 
 atom   5.1015582042118037       0.33311091805926635       0.46753780779215059      H 
 atom   1.2086682654485035        1.1218256664969692        2.3020892113399318      H 
 atom   4.1585422032541635        1.8845643306257660       0.14490593335395233      H 
 atom   5.0375780482136854        2.2574093359974641       0.54995573143809184      C 
 atom   3.8930189469179197        4.2682428111549271        1.5013603837072018      H 
 atom   2.7686617431434204       0.16696148467782002        2.0379688594460643      H 
 atom   4.8026826418426412        3.8307160942338783        2.1579066024902644      H 
 atom   2.4710768829576328       0.91300024578127226        2.1012567851649302      H 
 atom   6.8906277208917670        3.5485561233699112        1.6506744355993586      S 
 atom   5.2288394801646909        1.8316252358530261        1.4624446561176840      H 
 atom   5.8022151834590110       0.62655532367633382        1.7168804691182775      H 
 atom   6.3523839572234548        1.8026078843038749        2.4966444079650132      H 
 atom   2.9527889842345751        1.4059500490492163       0.38846940013575787      H 
 atom   4.9450517320478884        3.2727189845215747       0.70077634514691378      H 
 atom   4.0237121773686715        1.0499096298010115        1.6463612865635935      H 
 atom   1.5467458256186943       0.51436397094106256       0.92561476233402484      H 
 atom   5.0545388009400574       0.59134198105472191        1.8375819242920179      H 
 atom   6.6773514967662448        1.9914386216790363        1.2787165169101848      H 
 atom   1.0414581967620311        1.9926776981106471        4.6357286884976728E-002 H 
