 # 34 angstroem -77048.9249031085
 lattice_vector   4.8855959839599050        0.0000000000000000        0.0000000000000000     
 lattice_vector -0.35519502958986038        4.8234642619785868        0.0000000000000000     
 lattice_vector  -2.2381939716933781      -0.67031447232550168        4.2475735874009768     
 atom   2.2692818967678283        1.4409781043656547        1.4670968738868513      H 
 atom -0.79889848596735780        4.3241950468730801        2.8310397344297002      H 
 atom  0.61389863359097840        1.6003534514820792        2.7189366615912971      H 
 atom  -2.3264900944419682        1.2998782862297122        4.2597914043048410      H 
 atom   2.7894444925880229        4.6188623165633738       0.69193853434696517      H 
 atom   7.7495949502099606E-002   3.6346032137519448       0.18248408629640395      H 
 atom -0.13256599014601020        3.9673144166531835        1.5619163782630365      H 
 atom   1.2220226835159003        2.8304883408403727       0.46982087092845948      H 
 atom -0.32377820559382675       0.37878590456719807       0.88039518120063531      H 
 atom -0.91977518427372418      -0.15786158443332057        4.1754844972649243      H 
 atom   2.2457426862235486       0.53824863274226276        3.3002164576230566      H 
 atom   1.4498770066222282        2.2545902090845886        4.1428963527156197      H 
 atom   3.6918727422287638        2.0826550013320548        1.8027230245410331      H 
 atom  -1.6301074550682859        2.4227821949798756        3.2059382756386330      H 
 atom  0.11598784066429089        2.5306634539430122        1.6924878234211902      H 
 atom   1.0456993699784249        3.5839756667029983        3.6036651720201958      H 
 atom   7.7816836898743955E-002   1.6967619782709416        3.9321437328685045      H 
 atom  0.29616933540923884       0.83635743358038039        2.1724631489461772      H 
 atom   1.4072189274472597        3.1493640795348603        2.2248482966146743      H 
 atom   1.5163682163816088        4.0764783318256219       0.38197990445865554      H 
 atom  -1.0839892769956077        1.1168818639105094        3.5212987736908019      H 
 atom   2.7535500237941544        3.7081628876816470        2.5393966499509903      H 
 atom  0.95804342545180776        1.2030010063309251        1.0703797845604508      H 
 atom   3.3240467972317180        3.3754436416609415        1.2335973793132455      S 
 atom   2.7013084721062715        1.0813952312066109       0.13850491094352288      S 
 atom  -1.0523468376595608       0.68319229121120106        2.2674924461918979      S 
 atom   1.1337689998290221        4.5093766797282449        1.7559583316689615      S 
 atom   1.9240669930285754        1.9458086110296235        2.8017487667156655      S 
 atom   2.3367815155161118        4.1131889958523100        3.8795187637779129      S 
 atom -0.31483910391357106        3.0135854562218802        3.2991822865019542      S 
 atom  0.54190905159638247        2.1340119959869797       0.81944586827902355      C 
 atom  0.92006745528322997        5.9005474017786386E-002   3.1098179450421379      H 
 atom   3.8437832888500831        1.6035264005063854       0.54566186544064565      H 
 atom   2.1839950310301708        2.7563333995943604        1.0642807571359170      H 
