 # 33 angstroem -33820.7062001108
 lattice_vector   4.0842236330061406        0.0000000000000000        0.0000000000000000     
 lattice_vector -0.77961306894973625        3.8767680023652606        0.0000000000000000     
 lattice_vector  0.56475925935938220       -1.6217680895186770        4.6231246481256747     
 atom   2.8537254708839428       0.61017155935653622        3.4958630586684678      H 
 atom  0.40635074183393866       0.67053681795787090        2.5815120615377749      H 
 atom  -8.1801874117724521E-002   1.3452200461280466        3.8586504678237858      H 
 atom   1.4687005129096189        1.1718440944286446        2.1584505859014276      H 
 atom  0.79218455380960140       0.36060578140671756        1.4376119535943308      H 
 atom   2.4068701417531901       0.52982630868868941       0.70913017960586422      H 
 atom   2.1079386505915085        2.5399625249822226        2.4668479522827287      H 
 atom   1.2396444472236872        1.6963788033039304        3.5771904146597167      H 
 atom  0.13948174010560480        3.4614332860407075       0.11504008748429226      H 
 atom  0.19644414157123352        2.7243778763848185       0.44973711606093447      H 
 atom   2.9959621578960096        3.6298819266570472       0.44588517577000675      H 
 atom  -3.9386718050587341E-002   1.9158277958964163        3.3357736457087070      H 
 atom   1.2026276006433023        1.1668758607085137       0.65109470461946317      H 
 atom   2.8574152548809510        1.9853868998935504        3.8767185204707619      H 
 atom  0.71863312715517680      -0.31330919724162765        3.4732493927188566      S 
 atom   2.7078382347332757       0.61867185250150492        2.1939767528876790      S 
 atom  0.87925026982481358        2.4253750319516381        1.7675326088057906      H 
 atom  0.57357026636458086        1.8611287093740339        2.2316588062979275      H 
 atom   1.7482394464006394      -0.46857138625268235        2.3531990990957783      H 
 atom -0.24821879055353077        1.9322992372736185       0.86966652207413730      H 
 atom   1.3806718334805195       -1.0640711044463771        4.6039336593951976      H 
 atom   2.6086043207899259      -0.60510888839226651        3.9794762193234452      H 
 atom   3.5529224216614681      -0.40037077758933454        1.7971836497804847      H 
 atom   3.8025826321013314        5.3473788430077031E-002   4.3013672741436508      H 
 atom   1.5804948522356224       0.54478224621222338        4.0727643154336253      H 
 atom   6.6087749518236857E-002   1.2244097342830527        1.0565934329417943      H 
 atom   1.3562721175695540        3.5458434994217018       0.67959318649278566      H 
 atom  0.78377907988782081      -0.43385794367984137        1.4747349522397732      H 
 atom   3.4726153322066255        2.7664470237124847        2.1778514015744412      H 
 atom   3.3873416662597928        1.8693674523203339        2.1667627244557401      H 
 atom   3.5086331372823922       0.49668578154584869       0.42103656282106799      H 
 atom   2.1070028010907849        2.3108767163873125       0.64193847019155670      S 
 atom   2.0008180383178260        2.3872546008394973        3.4826493426000842      C 
