 # 33 angstroem -77037.1661693216
 lattice_vector   5.0371466391132813        0.0000000000000000        0.0000000000000000     
 lattice_vector  -9.8832132714007977E-003   4.1289192506183126        0.0000000000000000     
 lattice_vector   1.6970128884443560       -2.0119905598618586E-002   4.7397157276234188     
 atom   1.9707020329625360        2.6670398980266050       0.31189544897186150      H 
 atom   3.1021309943160156        2.5704992129865589        2.6744932883005124      H 
 atom   2.0143097165238100        2.9151362661459368        2.6239071734501627      H 
 atom   2.6562330593976120        3.5814189231080329        1.1544831004423555      H 
 atom   1.9989236437170197        2.5748072373227981        3.8498772930668874      H 
 atom   5.3842765729928850       0.51768537390941605        2.6224726867000152      H 
 atom   3.6362596260216624        2.6106900187865687        1.4272267087391828      H 
 atom   1.0482913693549740        2.5240604871992116        1.3619457419836964      H 
 atom   3.6408217492363617       0.57576859469563491        1.4838256305589521      H 
 atom   2.0009732251378769       0.49663575027468959       0.29024374829704452      H 
 atom   1.1723180400013995       0.76511412615127594        1.4165300897151099      H 
 atom   2.8340748752446450        1.5969093866968427        4.4689228097804596      H 
 atom   2.0139868291190490        1.6464079216736289        2.0781493583341897      H 
 atom   4.5305931596622306        1.6249365653007299        2.0799222441942646      H 
 atom   5.4028895788395506        2.6479226591262277        2.6372219544073738      H 
 atom   4.5320047895194184       0.48539939918084019       0.28645131795070927      H 
 atom   1.0672839558031264        3.7676023509793835        1.6198811398448545      H 
 atom   4.4858802626072372        2.5822776316354825        3.7788655746913613      H 
 atom   3.6031794895648819        3.6876189665394827        3.2608439128600311      H 
 atom   2.5558781202228436       0.39045174255262949        2.5377409432523437      H 
 atom   4.5893235581544793        2.7194355958687710       0.31222825374956659      H 
 atom   6.1115727829265394        3.6756620798170871        3.3857918757026515      H 
 atom   2.0086439619839354       0.55157006668650155        3.8064960232711815      H 
 atom   5.3687558123743155        1.5988394181983958        4.4466833747513128      H 
 atom   4.4984785869578570        3.6676688681757681        2.0356576200136693      S 
 atom   2.8316043094993684        1.5974589698139270       0.86605009834921742      S 
 atom   3.6689687021343604        1.5264543310855891        3.2684972006819981      S 
 atom   6.1898912069804446        1.5694886066128131        3.2364331009909515      S 
 atom   5.3047005689861493        1.5731428779626593       0.87372480268059449      S 
 atom   2.8121927519100018        3.6501157389126284        4.4517067137433211      S 
 atom   5.3241460775382601        3.6184471539593663        4.4516916302238956      S 
 atom   2.0671981659822114        3.7469898833977662        2.0051826250207045      C 
 atom   4.5918993795752199       0.51793750066105759        3.8375201005252633      H 
