 # 34 angstroem -44635.9872309013
 lattice_vector   5.3250394702256800        0.0000000000000000        0.0000000000000000     
 lattice_vector   1.1257653578022440        3.8787197963009601        0.0000000000000000     
 lattice_vector  -6.6363776379893755E-002 -0.96245768926631881        3.9065620256155147     
 atom   3.7447245285472039        1.2742842008215995        2.1180010002414726      S 
 atom   1.7881314607251451        2.7828339489509544        1.3356188628255485      H 
 atom   5.3245545030529167        1.5604180252660305        3.4436451256168992      H 
 atom   1.9371651017438254      -0.85862662573558635        3.7861851953688470      H 
 atom  0.86226157783754143      -0.64332213472312627        2.7496416542062785      H 
 atom   3.8270732189955554        2.4706976147803563       0.19813169591390706      H 
 atom   1.9079266757451752       0.34011337744869297        2.6233818741419510      H 
 atom   5.6695399170954328        1.6024680543802690        1.0791609047294490      H 
 atom   5.7347183969809539        1.0074210542957354        2.0833434122438046      H 
 atom   4.7792451137303393        3.6525365504911247       0.27608726744621581      H 
 atom   2.9335023149974746        2.6440903038783907        2.4186107541542752      H 
 atom   5.6328812434198987        2.7520735520070594        2.7808725581253735      H 
 atom   4.5092584695814111        2.1260149093037151       0.17925460972330334      H 
 atom   1.5393685816438920        1.9375058294463747        2.2249761658548151      H 
 atom   2.8739393014880590        1.5739527971851623        3.3361188948698226      H 
 atom   1.4579791374900191        1.3040269939462863        3.4006378967440374      S 
 atom   5.4032753843551005      -0.41275274553641617        3.8222099411390262      S 
 atom   4.8059207161231567        1.9518346101765904        2.7631689607798102      H 
 atom   1.7603842662119982        1.4111130603200885       0.87068394306863561      H 
 atom   1.6995868653983532       0.80069203035754477        1.3501906814422604      H 
 atom   3.1930148625942500      -0.51086592366990680        2.6933943136954475      H 
 atom   2.7933183178376204       0.39238737917727096        1.6722533593199469      H 
 atom   4.2188229867598874        2.8359808499117114        1.5297138688446787      H 
 atom   2.7276633147256448        2.8039070610596704       0.78344456550153163      H 
 atom   2.7818227194415162        1.9621542537101349        1.2471476899807503      H 
 atom   3.1784550853796438        1.3467080616197775       0.18294397724702041      H 
 atom   1.1048060883097022       -3.5089589415420647E-002  0.77671114833205535      H 
 atom  0.26147591432983114       0.27365912851737428        1.9201979901172439      H 
 atom   4.4349136901426656        1.0572048490135073       0.98488675804765180      H 
 atom   3.5808424603042761        3.3555648808770138        1.2025725753254679      H 
 atom   4.4480879482807243       0.36138837653962969        2.9553623930727801      H 
 atom   2.7591409274970058        3.3575945833001106        2.0426757168762677      H 
 atom   5.7319876224465043        2.9579613658611112        1.3864956761972893      S 
 atom   2.9322197309022857      -0.55077511121859846        3.6911423777131218      C 
