 # 25 angstroem -22921.7231756019
 lattice_vector   5.1208037826543258        0.0000000000000000        0.0000000000000000     
 lattice_vector -0.47397451298002130        4.0953463182647392        0.0000000000000000     
 lattice_vector  0.71634474096623357       0.10344829501858915        2.6116618198203176     
 atom   2.7803941056296688       0.77182166105675043        2.1373736690475234      C 
 atom   3.7248399795275580        3.9038253081418919        1.7418687687698953      H 
 atom   1.2358196844277094        6.3382706746666351E-002  0.86210879330055079      H 
 atom   2.5763297802770575        2.9992439665920383        2.0735415860866091      H 
 atom   3.3413271343698682E-002  0.34739338229019417        3.3057698368356002E-002 H 
 atom  0.45098538029462798        2.8937534204365174        2.6115201518733890      S 
 atom   2.8288079137186459        1.9813733812632768       0.63490030938468112      H 
 atom   2.4519356387556988       0.59557263404829131       0.47769789181555905      H 
 atom   1.7300446730889922        2.6748642825598701       0.85950093169666431      S 
 atom   2.0907955919884418        1.5371304297234896        2.1675515036004191      H 
 atom   3.7540117628454612        2.5346711950014567        2.0485065307852914      H 
 atom   4.9103450405886111        3.2312535259525927        1.3973105009058699      H 
 atom   3.7099085734323101        1.3613079081687747       0.25227240075067542      H 
 atom   4.8756575866601466        1.6110471753514435        1.7810885694616143      H 
 atom   4.7831977057416752       0.19857429352749775        1.4925212263128476      H 
 atom   1.0897058335230154        1.5211504724821150        1.0359175521956336      H 
 atom   2.8528760557449786        3.7658695603507475       0.71558980664705596      H 
 atom   4.8538049499994544        1.3724637071722423        1.0628381028174803      H 
 atom   1.6628910455681680        4.0732519722775340        1.9582166232412526      H 
 atom  0.91295713918002597       0.50354343555950853        1.3777903823921236      H 
 atom   3.4703326417893852        3.4377776217159672       0.31153773941404922      H 
 atom   3.9412977935691265       0.62871722307774780       0.22309503722296403      H 
 atom   3.7397887835052153        2.4634257349559370        1.3014175277596114      H 
 atom  0.88331810410519618        1.2411334005378947        2.5298917750190975      H 
 atom   3.5252833091008875        1.0033472072791076        1.4641923476301262      H 
