 # 33 angstroem -33820.4788516944
 lattice_vector   4.0815180273719607        0.0000000000000000        0.0000000000000000     
 lattice_vector -0.74141383674945860        3.8743273676865235        0.0000000000000000     
 lattice_vector  0.57000345636998462       -1.8356943019014649        4.6305235427128917     
 atom   2.7915345582563793       0.58007424398257523        3.4242322044765947      H 
 atom  0.85889515692361740        1.0204125433689508        2.0422122070917648      H 
 atom   9.3298265989389048E-002   1.3526242789146365        3.4357060694110735      H 
 atom   1.8477210458642184        1.1111669829439828        1.7824696167277532      H 
 atom  0.20724501441991419       -9.7426767159427742E-006   1.2788642249866122      H 
 atom   2.4376834447369156       -7.6655167657662102E-002  0.54429965250231127      H 
 atom   2.1866910730047313        2.3749203652903930        2.2994460874217952      H 
 atom   1.4939756434007183        1.4445850286462207        3.4745802172617206      H 
 atom   3.8178007932139248       0.39602203644454331       0.20186702417118227      H 
 atom   3.1546488007152687        3.4039819740635502       0.12043936693914538      H 
 atom   2.8179628143534434       0.74526485602908532       0.43405556265956691      H 
 atom  0.25415419065310546        2.1431575046260209        3.2798065500345177      H 
 atom   1.3730169726279016      -0.34775587310701833       0.20410686540696879      H 
 atom   3.0589281821129228        2.0135012607692540        3.6842526068975605      H 
 atom  0.68765513031024461      -0.12537204846138231        3.2498051275853781      S 
 atom   2.9438081702809562       0.36679739651633436        2.1303242609598394      S 
 atom   1.0084159544817413        2.5460779800824378        1.4770933710664744      H 
 atom  0.71939360719202194        1.8583617881868231        2.1667760252060169      H 
 atom   1.6693015693144517      -0.60352777785724110        2.1191735953303774      H 
 atom   9.0341193931545632E-002   2.0840158108229083       0.65893557366984556      H 
 atom   1.3498982371094068       -1.1583248340172096        4.4878547495225556      H 
 atom   2.4918984570879186      -0.78033601969520827        3.7583654969929605      H 
 atom   3.3880454173871941        2.5749644792855495        1.4854046661087508      H 
 atom   3.8464904142976781      -0.21281442785910187        4.2387469015334815      H 
 atom   1.7038505474052055       0.28129638759304570        4.1336779540154334      H 
 atom   1.3138563299220460       0.88477443306638370       0.47028003395470092      H 
 atom  0.10799088605334523        2.9771563553798472        1.2777372564433809E-002 H 
 atom   1.0082358442144024      -0.10114924525682975        1.3282055712369683      H 
 atom   3.5678155030979548        2.6594862264189598        2.2656737489133425      H 
 atom   3.5792403560732753        1.5427343129488200        2.0604795184381799      H 
 atom  0.13264897348238858        1.3539523019511557       0.82189244241143555      H 
 atom   2.1517183127871591        2.3077951466404385       0.51542362104639572      S 
 atom   2.1193456841630085        2.2449469321883933        3.3233861075635502      C 
