 # 26 angstroem -44541.3533351512
 lattice_vector   4.2188042031133897        0.0000000000000000        0.0000000000000000     
 lattice_vector   1.6317227870031588        6.4557880042221978        0.0000000000000000     
 lattice_vector  -5.6737301172400514E-002  -6.0626340863690953E-002   2.5112618783408847     
 atom   2.4876107632793256        1.3050258893891256        1.3736633593361713      C 
 atom   4.6478249294268386        2.3703711654017408        2.0511194787726503      S 
 atom   4.5175356684565964        5.9189681117595123        1.9873393636420702      H 
 atom   4.1728103044409837        2.5346716422695707E-002   1.4441070240950911      H 
 atom   1.3364632206913296        1.8048287865791259       0.36258208546782139      H 
 atom   2.5574597304022535        3.5626383588558967       0.41504441591701485      S 
 atom   1.4932363164375828        5.4063144615200667       0.46836888582435787      H 
 atom   2.5847536081620599       -2.5268869176061802E-003  0.37400152506749496      H 
 atom  0.45391798694750474        1.2175071097624393        1.3431686994333492      H 
 atom   2.5296283252118505        4.6904585962850591        1.2556888540013931      H 
 atom   3.6180817715262146        5.3756369433703632       0.53749624190472656      H 
 atom   3.3483384549013588       0.84265692661267377        1.7303773360764452      H 
 atom   4.6265396460225565        3.5442195577402704       0.42071938704964951      H 
 atom   3.7939381034094222        1.7674488047027586       0.34230319231263945      H 
 atom   3.4356993893013463       0.10840542757499765       0.36313019707368305      H 
 atom   2.5352124902921567        5.8524985968977736        2.1793723699277727      S 
 atom   2.4114222344597329        2.2339790005097351        1.8967188198321983      H 
 atom   4.0613048710955697       0.78788569594535762       0.40118185337748480      H 
 atom   1.4474212120394934        2.9846416540250997        1.2635614818395713      H 
 atom   2.5774866170024695        1.4627573458827852       0.35391756481458481      H 
 atom   4.6520324464861655        4.7497286315924514        1.3084006215107959      S 
 atom   1.7428523540808361       0.59837916438916594        1.5878404993247563      H 
 atom   1.4402577538498835        4.1602949777152869        2.1387174825747244      H 
 atom   1.0483948189307797       0.61504124465744225       0.37992390248201702      H 
 atom   3.5991863619604603        4.1568695829095477        2.1136406974590933      H 
 atom   3.5602283048740362        2.8763066273805342        1.2652397932380683      H 
