 # 24 angstroem -22909.9327661934
 lattice_vector   4.6825980974808070        0.0000000000000000        0.0000000000000000     
 lattice_vector  -2.3061898105573064        4.3349135305891187        0.0000000000000000     
 lattice_vector  -4.2294522288794777E-003 -0.15325746559249628        2.6089371783128432     
 atom -0.99227467223342491        2.5915161734058332       0.12944847274662946      C 
 atom -0.41209857383331017        4.0450298671669893        1.4527911176532280      H 
 atom  0.37229774543972893        2.2876689100907721        1.7771741391059181      H 
 atom  -1.0134552597794082        2.5096093799982797        1.7058778684624403      H 
 atom   1.8593306919190314E-003   3.6532804334499849        1.9669628105569510      H 
 atom   1.4240836065590896        4.0180999822042915        4.2154527118240304E-002 S 
 atom   1.9779804902767941        1.7824002859884982       0.15746118245850949      H 
 atom   3.6277253722591056        1.5830566796427437       0.41265543453755510      H 
 atom  0.53440204851588624       0.61746006308304568       0.95448578990356547      S 
 atom  -1.7437534273644242        3.8037790231247071        1.7033930838729858      H 
 atom   2.2377168390582547       0.99928388697179305       0.15419815082958838      H 
 atom   2.2494014176016330        2.1113159209702097        1.5748997310176771      H 
 atom   1.4504829002536250        7.6404263076749288E-002  0.11479650939380499      H 
 atom -0.43470476269575870        1.1169741532366262        1.6944441460410469      H 
 atom -0.15352226966373475        3.0155539606713710       0.56357083586194112      H 
 atom   2.8103613445925801       -5.9245982847620393E-002  0.95798511723283031      H 
 atom   1.5009547089080713        1.1432164097630970        1.6226979908760839      H 
 atom  0.54528709193645886        1.6760001036179941       0.14836248269610280      H 
 atom   1.3831794830279531        2.5601137309258371       0.20842829910874938      H 
 atom   2.0981264170523031        2.8554511477967743        1.5031158528743864      H 
 atom   2.8113338962005314        1.2212982003334412        1.2549428516005625      H 
 atom  0.83064731772326550        2.6152282054249398        1.3055663792249594      H 
 atom   3.0186303162606811       0.81336764325175170        1.8988450438555049      H 
 atom   2.8185949884734631        3.0440239889009213       0.46602111885451758      H 
