 # 47 angstroem -120419.717198305
 lattice_vector   6.3139563877197036        0.0000000000000000        0.0000000000000000     
 lattice_vector  0.69565709453154123        4.9690625431821589        0.0000000000000000     
 lattice_vector  0.63343141031917249       -1.7678341140882146        4.6473671625655033     
 atom   5.0796857483268205        2.9530918828092485        4.2277336466496855      H 
 atom   3.8586770082450457        1.5813371681643209        3.8151315623571809      H 
 atom   6.2119394034544557      -0.53498532960266321        2.8833081676362120      H 
 atom   5.4812706148515380       0.48425359108126698        2.2582993312998987      H 
 atom   1.8379407698545023        3.5304828536110087        3.0516149727785349      H 
 atom   3.5032501490348573        2.4876881118699012        1.5025507673535334      H 
 atom   5.7766849898634103        3.2072294999588649        2.5475665077611338      H 
 atom   6.4752932482189225        2.8793472268069964       0.30721596392098383      H 
 atom   2.7762419499724151       0.95337727218741009        4.5553990239121980      H 
 atom   1.5297472851261309        4.4615605755808287       0.69175577614964112      H 
 atom   4.9304627800929222      -0.80366938189924053        4.0075889177999402      H 
 atom   2.4762177114748440       0.11798283326233609        3.3987960962974544      H 
 atom   4.4749655341866656        1.4556029205132419        1.8872891551500464      H 
 atom   3.1785289773442575        1.4919951767381794E-002   1.4820244891092789      H 
 atom   3.4853051884777835      -0.89097438011588226        3.8010841237453850      H 
 atom   2.1970492601100160      -0.73937511046241144        2.2445245918329189      H 
 atom   4.1970452613852709       0.70238913916002388       0.68854727258509385      H 
 atom   2.3639290282276493       -1.4923856120178323        4.5410591310483142      H 
 atom   4.8646635177585056        3.9950971741812151        1.8478040682703356      H 
 atom   4.4485542834635750        3.2116948046890279       0.65747905945180818      H 
 atom   2.4794926516907929        3.4439687403096584        1.1185533555304137      H 
 atom   4.8357033867806365       0.59903628672528919        4.1616022135627837      H 
 atom   6.8887885911627826        3.0205814550801202        3.7722575793957627      H 
 atom   2.8591549379762160        2.5846348595949418        3.4361807080635698      H 
 atom   6.8315579254195109        3.7309888127035982        1.5060210522376993      H 
 atom   2.1041348795492030       0.92847140860085342        1.1193403625266274      H 
 atom   4.9527646476530416        2.1918048432788355        3.0721588082371136      H 
 atom   5.9401880539686873      -0.21184420097497705        4.6614667332550654      H 
 atom   6.1345115500945147        2.1421821410825665        4.5615591098116264      H 
 atom   6.8416163479884773        2.0309061804255335        2.6293261527272422      H 
 atom   2.4009933947023772        1.7523242375373222        2.3078596394615380      H 
 atom   4.3994478836361433      -0.10260013383556885        2.9413808223674338      H 
 atom   1.1893722572877683        1.9466222611883595       0.72630480024286082      H 
 atom   6.1421126097483336       0.43377917562499224       0.25441005534345357      H 
 atom   6.4700979449384945        1.2254031549490716        1.4169898948871928      H 
 atom   1.1425951644208685       0.26848407190780288        1.9229085765874068      S 
 atom   3.4777973398353086        4.1966292812176071       0.32482704735972551      S 
 atom   3.1411059037975506        1.6854534938669703       0.33597925153654223      S 
 atom   1.7842452997241574        1.8565044100128758        4.1555306909062120      S 
 atom   1.4879091442234045        2.7512654259517437        1.8683894890639887      S 
 atom   5.4931831924719621        2.2403938029975698        1.1412395351522833      S 
 atom   5.1610417989661839      -0.27968054764092781        1.0685228666042241      S 
 atom   1.3968732538457553      -0.54054189367151484        4.1340087753171249      S 
 atom   3.8566243452056490        3.2637207668645485        2.6540507777929849      S 
 atom   3.4702146654516026       0.81217746687183556        2.6572401438514381      S 
 atom   5.9092263175992121        1.2374794872359860        3.4209887339974232      S 
 atom   5.5664694198868787       -1.2407875987651371        3.3152265566821533      C 
