 # 34 angstroem -33831.478947668
 lattice_vector   4.7578513371763815        0.0000000000000000        0.0000000000000000     
 lattice_vector -0.69285414545772928        4.1887942458622804        0.0000000000000000     
 lattice_vector  0.15633507123097987       -1.2937834400418673        3.6933733508594608     
 atom -0.26928171825627406        2.1146717953106737        1.4533467521645789      H 
 atom   3.3889128477584567      -0.26350484907645216        2.7260796728330043      H 
 atom   2.4305109877591620        2.5528352024258512       0.50493380759495832      H 
 atom   1.8396896597750043       0.29076364361975232        1.9853160612210015      H 
 atom   2.6767398164289249        3.3081601642183514       0.23406004156662469      H 
 atom   4.0111525440000086        2.7993906265277309        3.0294924477443872      H 
 atom   2.6849362066669569      -0.34152961993863212        1.4514415795321358      H 
 atom   3.1875218073889653      -0.97323609097174757        3.0786031241555105      H 
 atom   2.6394803050561757       0.52024515778820124        2.7881989237529501      H 
 atom   4.0568573192326793      -0.29238714434782298        1.7558941098648135      H 
 atom   2.9589916781759023       -9.7542844857936833E-003  0.45843814974439540      H 
 atom   1.7298679583530758       0.80670034011588787        3.2136455812833273      H 
 atom  0.43260082581392861        2.9583249307067163        1.5893471870992426      H 
 atom  0.24883669112410967      -0.11853467834509913       0.38306840018550226      H 
 atom -0.13296224405863341        3.4882839889618635        1.7194854747631512      H 
 atom   1.0714927676061567       0.91134567814952194        1.0674281644936112      S 
 atom   3.2993591286386015        1.7762973961476729        2.2767859318651644      S 
 atom  0.27668240024289376      -0.38569117201163139        2.7899398256779926      H 
 atom   2.0225513678908644      -0.88160160748017302        2.8234282403333317      H 
 atom   2.3987531678093879       0.82342981505049995       0.43856480910471474      H 
 atom   1.5079042323330718        2.1932611978343699        1.2870666579302938      H 
 atom   9.1449578335745393E-002  0.81489025297340822        1.9393870457584679      H 
 atom   1.7125324353307962        3.1322918887478304        1.7109352906566306      H 
 atom   3.9747764566916586       0.56317257204000826       0.47458024699072943      H 
 atom  0.42174715808682822        2.2707055332673276        2.6577017405677372      H 
 atom   3.8886546710587315        3.2118525356817047       0.51643794021715872      H 
 atom   1.0270933029391089        3.5136844242005281       0.48967316333250316      H 
 atom   3.2608195075729105        3.0521252274269597        1.5541191775622698      H 
 atom   2.8749171110006677        1.7051430232017653       0.49992582806471136      H 
 atom   1.8989464727025518        2.0459150868170402        2.6266107549562498      H 
 atom   3.6945474708800039       0.61333476868902759        1.4364993894617313      H 
 atom   1.4114960034239072      -0.45603443353579498        3.0051581133724614      H 
 atom   4.4926955312354782       0.63903698462617275        3.6416504671608432      S 
 atom   1.0049476734823843        1.6702445693396621        3.3166766652934361      C 
