 # 36 angstroem -44659.4915772159
 lattice_vector   4.7054635398277203        0.0000000000000000        0.0000000000000000     
 lattice_vector  0.93041175408080834        3.7245773917695346        0.0000000000000000     
 lattice_vector  0.51050884974412281       -1.6769398269813924        4.7793304989520387     
 atom   1.9537109348735162       0.88617825548402884        1.3688739300188342      S 
 atom   1.8148819773596738        1.2083119228328192        2.7460061753658427      H 
 atom   1.4507965853873501       -1.2715145287538934        4.1330426936433975      H 
 atom   3.8457950873677693        2.6309217789549848       0.44787076158589267      H 
 atom  0.79156375247526289      -0.17282849042643036        3.0394332878392336      H 
 atom   4.9309869875989722        1.3011875931354770        2.7892989477964667      H 
 atom   1.9473492715036884        2.4126993224018602        3.4826532824961189      H 
 atom   2.1198659581597319      -0.24230308484838037        4.1932587636492897      H 
 atom   3.4000537535375370       0.53907528409322203       0.85413157481287705      H 
 atom   5.5668010147764804        1.5663537346371337        3.8532403893256859      H 
 atom   1.4907044830369078       0.13791531900482290        4.5624901442403196      H 
 atom   1.7498688746401070       0.19061159925230428       0.21438427084708037      H 
 atom   3.9758382421691438      -0.94881561104795153        3.2967593982572789      H 
 atom   2.0184828625273927        2.7804526481226741        8.4339950461162216E-002 H 
 atom   2.6588116909818353        2.5777732183417328       0.50483999972925464      H 
 atom  0.55894286248790703       0.43976141411699610        1.7932188436062597      H 
 atom   3.1187666174557944        2.7068423651040616        2.0935918422626272      S 
 atom   4.0776235689927987      -0.22203809866005747        4.0320707045593052      C 
 atom   1.2280426068622137        2.1529956815572642        2.7447392676210525      H 
 atom   4.7257851246224405        1.4058340037833847        1.1411146970414310      H 
 atom   1.2633892014640691        2.0356736273539493        1.0577225620287038      H 
 atom   1.7660792935305685        2.8404624181530518        1.7898280965851201      H 
 atom  0.40174687586864510       0.50502900085784952       0.37677617903751587      H 
 atom   5.3398079080404921        2.2663504946093309        2.1552880177615870      H 
 atom   4.6746253380656082       -9.6606143969006048E-002   1.9940365515434015      H 
 atom   4.5351492069819201        2.8517376734766784        1.9613784201910560      H 
 atom   2.4582878476462260      -0.37758499437920240        3.2622766736632429      H 
 atom   3.4798461665517864       0.40961963405529200        2.1618587021558979      H 
 atom   3.9695957577938601        1.4815483202544166        1.2503990822635167      H 
 atom   3.3037335785009767      -0.32176584288936888        4.7309722200258495      H 
 atom   5.0174441086415777      -0.29179843230613184        4.4861783284809054      H 
 atom   2.4152021180059191        1.0287545099193913        3.7070587263044517      H 
 atom   3.8940687244987013        2.0339836216690568        4.2331300586078369      H 
 atom   1.1977026466763971       0.40004808909345130        3.3082740521417824      H 
 atom   5.0601490095550092        3.2017316250353280       0.40008981440319941      S 
 atom   3.6966485795929125        1.1509901193677297        3.2376903583523347      S 
