 # 35 angstroem -33844.0071451551
 lattice_vector   4.0215535594576384        0.0000000000000000        0.0000000000000000     
 lattice_vector  -2.0957164040786549        4.5949487808912082        0.0000000000000000     
 lattice_vector   1.8199881675369043       -1.7286670715326531        4.1048137884147460     
 atom   4.6975691327593154E-002   2.1394239324674493        2.7027943314413241      H 
 atom  -1.6301226496246672        4.0437136513694654       0.23798363688300997      H 
 atom   1.8472279943566960       -1.0934879261736343        2.6725017954894774      H 
 atom   4.2161178879288403       0.58251070961981366        3.7366982543504914      H 
 atom   1.0923716696716259        3.0285813133198345        3.2013910639018741      H 
 atom   2.2926863448105412        3.3377036656684500        1.8308671185626462      H 
 atom   3.3509420647864117      -0.22427951840774396       0.87226067543424413      H 
 atom   1.9574546567290558        2.0668609176344765        1.4150399469899770      H 
 atom   3.1003452194634717       -6.2239764457285400E-002   2.8825418094138722      H 
 atom   2.6052784973211263        1.2611431082963924        2.3691750859445828      H 
 atom   1.7051552274875119        2.0050074464736647       0.46758099267923564      H 
 atom   1.3091172734197718        1.6654360899218197        2.9631215685656773      H 
 atom   2.4517557154791736        7.5686073764438061E-002   1.8378442621602393      H 
 atom   2.4843666014803811        2.7966966928313060        3.0089547275024389      H 
 atom  -6.9010019348044918E-002   3.6601496098221840        1.9330512485721338      H 
 atom -0.68628011878084438        3.1534729996922626       0.14213112560980457      S 
 atom   3.0832792888494653        1.9557939237976221        2.9641639427944497      C 
 atom   1.1663053946325350        2.9996147796526804        2.4515898080944072      H 
 atom   1.4749467611609755        3.1175220053847434       0.94154821955701440      H 
 atom   2.9176043301991363        1.3673189403128678       0.89588205815184474      H 
 atom  0.15174971410801322        4.1582845678947660       0.44378316100943421      H 
 atom   1.0529340810852648       0.47017766927783239       0.93014910065250322      H 
 atom   3.9808157662862191       -1.0870995620590254        4.0821987329312899      H 
 atom   1.2040162204077371        1.7265709889335592        1.8304625320375933      H 
 atom   3.5143493836134363       0.14814533845409650       0.19182232828676740      H 
 atom  0.74192199005261494        3.1056270834436246        1.2520301801964338      H 
 atom  0.42953103260227360        2.0497637631869368        1.4862724894616575      H 
 atom   3.1752636330216735        2.6230580329078594        1.3859904146544957      H 
 atom   4.4985111923198948      -0.70056299590119830        3.5954250602800659      H 
 atom   2.1736058823497264       0.63310115314393822        1.2954636786170972      H 
 atom   3.0424712023547769        1.4613743845145477        3.8779515116783556      H 
 atom   1.5861582487542820       0.40076586774392176        2.6837881558966550      H 
 atom   3.5767055998406740        1.2193930854199828        1.3819077885960735      H 
 atom   4.3650339381272207        5.0274781358062695E-002   2.1583306649713085      S 
 atom   2.2804934241914090      -0.27975590231003172        4.0076244605430862      S 
