 # 6 angstroem -11890.7916748002
 lattice_vector   2.5079474070418071        0.0000000000000000        0.0000000000000000     
 lattice_vector   1.0830192737601920        3.4536187629041102        0.0000000000000000     
 lattice_vector   1.2917789866893974       0.53254501585801461        2.1272867108443219     
 atom   3.0418001907048757        3.6518384202347445        1.6056768276826112      C 
 atom   2.3217915333495549        2.4030951478490805       0.83311340318769600      S 
 atom   1.6569244217676962        1.1607988606884125        2.4600125244625900E-002 H 
 atom   1.3038132568318297        1.0132878561029270        1.7988875637270942      H 
 atom  0.81936706970213369        1.5472938165811061       0.43696505384030437      H 
 atom   2.7428729518763304       0.56377190228499863        1.0385954606671863      H 
