 # 7 angstroem -1100.09413295873
 lattice_vector   2.5426959973264842        0.0000000000000000        0.0000000000000000     
 lattice_vector  0.72694832736829795        2.4350224299836447        0.0000000000000000     
 lattice_vector -0.76097277658210127      -0.56722322687018323        2.2876778161931695     
 atom   1.8549003290541508      -0.13910779627316408       0.94149690038284406      C 
 atom   2.1699600613689256        1.9875677829830731        4.7871297984605522E-002 H 
 atom   8.2692213719935848E-002  0.43602779892031990       0.58934223682422671      H 
 atom   7.8803732079981648E-002  0.42954869020093811        2.0813159051899408      H 
 atom  0.37805743868972730        1.5173557039788170        1.5212360224816011      H 
 atom   1.2038138400126066        1.2711271770420343       0.33631088245803331      H 
 atom   1.2037954464358196       0.40595496675504550        1.5211493669319198      H 
