 # 7 angstroem -1099.7265248606
 lattice_vector   2.5515213663256939        0.0000000000000000        0.0000000000000000     
 lattice_vector  0.86733215279247022        2.3953244495501642        0.0000000000000000     
 lattice_vector -0.82051862922122754      -0.58788479314093112        2.3209003785465336     
 atom   1.1492242471152854       0.82634358088526649        1.0826649629901508      C 
 atom -0.55341000884497171      -0.35998127998194851        2.0652220657050311      H 
 atom   1.6541898937115462        1.2272151262183257        1.9253520881412785      H 
 atom   1.2026291865778913      -0.19443716585643375        1.0390113691933007      H 
 atom   1.4560676553858360        1.1020959622033335       0.13719239398040597      H 
 atom   3.2805548834686880        2.2969795799303356       0.22250231188598898      H 
 atom  0.14825137024193916        1.0426846096342106        1.1062340017817514      H 
