 # 7 angstroem -1099.60921276655
 lattice_vector   2.4458602369397457        0.0000000000000000        0.0000000000000000     
 lattice_vector -0.69997750675942116        3.5613177890995287        0.0000000000000000     
 lattice_vector -0.53215318357747188      -0.10452788664963097        1.5196744542146441     
 atom -0.72015049291876698        1.7678661590190312        1.2862452760589287      C 
 atom   1.9650503697708599       -6.6764539404641594E-003  0.39120986537120067      H 
 atom   1.1549387803547639       0.79754256611253815        1.0197563828560547      H 
 atom  0.94178607498013256        2.4594014417622718        1.0590605924930183      H 
 atom   6.1942059975876651E-002   1.0733905800401404        1.5122911099476910      H 
 atom  0.27037944275587189        8.5078715689440282E-002  0.66056563674321422      H 
 atom  0.38142691981183080        2.8434348833211818        3.2806760819575738E-002 H 
