 # 7 angstroem -1099.72659948222
 lattice_vector   2.5462957278151515        0.0000000000000000        0.0000000000000000     
 lattice_vector  0.85888045048993999        2.3858536436896709        0.0000000000000000     
 lattice_vector  0.80665199030123724       0.58773411954580124        2.3353698660086173     
 atom   1.4296820459116169       0.66699496520604362       0.75891466087988058      C 
 atom   3.5146311300103728        2.1732739909188399        2.2128551200662789      H 
 atom   3.1123418808492711        1.8371741556390271        1.7395094862820102      H 
 atom   1.3264375410536271        1.6833403697403322       0.69340195797083115      H 
 atom   2.4398345985476708       0.50036160427200616       0.80102724622798438      H 
 atom   1.7926933939873064        2.6388210567352917        1.6000448549879083      H 
 atom   1.9438988861288895       0.95069275124641928        2.1536350239396125      H 
