 # 11 angstroem -11950.9970857496
 lattice_vector   4.9066209492008301        0.0000000000000000        0.0000000000000000     
 lattice_vector  0.53390850686671110        2.3929947116746444        0.0000000000000000     
 lattice_vector -0.59530128968311846      -0.84952974381521262        2.2735974318688341     
 atom   1.2910888763639905        1.6330229539247387        1.3697835065516890      C 
 atom   3.7011667963945487       0.74222114818182827        1.8936950009820712      S 
 atom   3.1408670369188245       0.96434184953959201        6.2562777774611888E-002 H 
 atom   1.3097591424540207        2.1050746544896684       0.45933781639634597      H 
 atom  0.97157852534478506       -9.1394675563624433E-002   2.1337635700714146      H 
 atom   1.8729246778370803       0.78399710916627241        1.4072683510871187      H 
 atom   2.5248570302354421       0.13920426803226449       0.55488604651001106      H 
 atom   2.7542816451979744        1.9440258845927081       0.98999871261560046      H 
 atom   3.9979812522852156      -0.14048858856096494       0.83655733873137195      H 
 atom  0.31859546399865246        1.1969986642267314        1.5013271592569502      H 
 atom   5.0030866499318778       0.74112065698623364       0.29085980796369032      H 
