 # 2 angstroem -2052.91151779672
 lattice_vector   2.9744668982500895        0.0000000000000000        0.0000000000000000     
 lattice_vector   5.6292908832943360E-005   1.5572054250905332        0.0000000000000000     
 lattice_vector   8.4947111409560381E-005  0.68364776768696245        1.6963532430084614     
 atom   2.2020172989548756        1.6792013813315099       0.74351689062766613      C 
 atom  0.71483800107222073        1.6793381498927151       0.74368104066197471      C 
