 # 2 angstroem -2053.92827628718
 lattice_vector   2.2899188116181524        0.0000000000000000        0.0000000000000000     
 lattice_vector  0.14651403388797696        1.6425858817255294        0.0000000000000000     
 lattice_vector -0.66374596701580524      -0.14494579132170429        2.1872122156143616     
 atom  0.58025824651145574        1.1967070522000762       0.22862378988350882      C 
 atom   1.0325425589590076        1.0847006259991991        1.5878792579292387      C 
