 # 2 angstroem -2055.3123349338
 lattice_vector   2.2906230993519157        0.0000000000000000        0.0000000000000000     
 lattice_vector -0.33540250598872245        1.9524898398229862        0.0000000000000000     
 lattice_vector   1.1499026070113287      -0.39159181444652236        1.9463824431124332     
 atom   1.8922658392878133       0.11352261391030417       0.19447258916306295      C 
 atom   1.8933059506059347      -0.12992564026657813        1.4986984696881560      C 
