 # 2 angstroem -2057.71520012134
 lattice_vector   2.2690846708641552        0.0000000000000000        0.0000000000000000     
 lattice_vector   1.1342986614520274        1.9650154330098502        0.0000000000000000     
 lattice_vector   1.1344161228844467       0.65522381407314290        1.8527132970566138     
 atom   3.1139678312516534        1.4216390713223030        1.6351495738174120      C 
 atom   1.9794944244364912       0.76651625584152150        1.1719325005581387      C 
