 # 2 angstroem -2053.57376914852
 lattice_vector   1.4717091908127067        0.0000000000000000        0.0000000000000000     
 lattice_vector   1.6363284920916715E-006   2.1670376310608073        0.0000000000000000     
 lattice_vector  -2.0681638392291247E-006  -1.9683174852955920E-005   2.5087860854385542     
 atom  0.52850652809343213        1.2738394634063055        1.5417723481953467      C 
 atom  0.52850793019644438       0.19033163592693506        2.4714900844751080E-002 C 
