 # 16 angstroem -13027.4929715241
 lattice_vector   4.5731858662662574        0.0000000000000000        0.0000000000000000     
 lattice_vector  0.59944025105994880        3.3141538991555919        0.0000000000000000     
 lattice_vector   5.2469592385647378E-002 -0.92885273334065410        2.4714709659131491     
 atom  0.77106340090267078      -0.10607428543476120        1.1697581562375452      C 
 atom   3.8221404729183250        1.3764195620757989        2.0269279163377383      H 
 atom   1.7189132980375470       0.28660196803549531        1.3481471892765571      H 
 atom   4.3948108604326537        1.7201916765799408       0.55656217274991293      H 
 atom   2.0195893425261842      -0.50589954829262318        2.1708594584574548      H 
 atom   1.4231941207580030        2.3068822896445274       0.15192257930979375      C 
 atom   2.3066880770429323        1.4510695985336628        1.9976897856424707      H 
 atom   3.0903959622248651        2.4372974512491328       0.93828855240348907      H 
 atom   3.1207630020101136       0.28862017964282977       0.30523498031016993      S 
 atom   2.8769824678306843        1.6101621312003902       0.91975885864302198      H 
 atom   1.3932203811717390        1.3661534389261021       0.55417773884589649      H 
 atom   4.7882792283583893       0.73577227398586909       0.91612497348684874      H 
 atom   3.5890890244447875       0.57412036750485773        1.9505223003092522      H 
 atom  0.66621132901187929        1.5147855122331482        2.0014120812239007      H 
 atom  0.28745134209406809      -0.38173557071721503        2.0333956916486624      H 
 atom   4.4794275183085270        2.1343591375057027        1.1675717548270070      H 
