 # 13 angstroem -12992.3424519629
 lattice_vector   2.5443734389544805        0.0000000000000000        0.0000000000000000     
 lattice_vector   1.2706677344731940        2.2830410222771724        0.0000000000000000     
 lattice_vector   8.7981014942032781E-002  -4.2600349532975014E-002   5.5442725913783422     
 atom   2.3839726505958510        1.9673630440389953        4.8705460351551251      C 
 atom   1.7411662328268298        1.9673941514154816        3.6575801978950206      C 
 atom   2.1555423471583715       0.48001106334386884        1.6401088178563128      S 
 atom   2.0637572429777524        1.9967540834020920        1.4439044423488570      H 
 atom   1.1202143041336354        1.1475769647664289        3.5370062138338270      H 
 atom   2.3801840127640173       0.49831413195101631        3.5699338986069904      H 
 atom   3.0634439899471233        1.3531495951038337       0.70684672177004038      H 
 atom  0.80736392066890095        1.1513400709090811        2.2231861509650637      H 
 atom   1.7765504797287630       0.47420198766011473        4.9534785051351324      H 
 atom   2.4661529327468430        1.9969035273316809        2.9020971024696878      H 
 atom   1.2899505508083604       0.94789153439798202       0.62262003296403035      H 
 atom   2.9970141307007152        1.1354479676876283        4.9397512015961933      H 
 atom   1.5841552311794285        2.0859849923957920        9.1339861179772996E-002 H 
