 # 21 angstroem -13087.913074855
 lattice_vector   5.0437283458155129        0.0000000000000000        0.0000000000000000     
 lattice_vector   1.4435999225044411        3.5702242438212410        0.0000000000000000     
 lattice_vector  0.72794240021723811       0.71007694885446782        2.5242731806498675     
 atom   2.6934773712565625        2.1068401641330761        1.7580884911579717      C 
 atom   5.5054797104184479        1.4416423673116745        2.2066629742115684      H 
 atom   2.1300757809769677        3.5791061183352344        1.5110046202286966      H 
 atom   3.4033313762000872        3.8099919150722541        2.2747958886121413      H 
 atom   3.3267719471878454        1.2696317476234804        1.7087653906918203      H 
 atom   5.4011028105646819       0.96526841250489215        1.3017666560063450      C 
 atom   2.1737561058898001        1.8010234850173157       0.16318310733249095      H 
 atom   2.3796304481896846       0.33552750633670159        1.1425882886154346      H 
 atom   4.9537951321247862        3.2094491500131017        2.2046080712306844      S 
 atom   1.7466978547113061        1.6856571927570321        1.6302272191104923      H 
 atom   4.3899060891691395       0.89982307227444758        1.0978999206935869      H 
 atom   3.4625230870666126       0.38797999830828211       0.35562486627216294      H 
 atom   5.7863549919898052        3.0613049836789163       0.46361397111571517      H 
 atom   1.9240587579639576       0.40542479047775315       0.59134215505854304      H 
 atom   3.5205354902369432        1.1707016893973163       0.21074902157594738      H 
 atom  0.84798287296202091        1.4620638373323209       0.54416661197575511      H 
 atom   2.2006366485129640        3.4893998680041776       0.14571847849282582      H 
 atom   6.1417862637797258        2.7972275185380804        1.9502729295887655      H 
 atom   3.0129051130136797        2.7413155645752902        1.0068832079893837      H 
 atom   1.3517854802936964        2.6945193032209294       0.57352875432449080      H 
 atom   4.4742338036407752        2.4454588793879712        1.0990896298018826      H 
