 # 24 angstroem -45533.1532352877
 lattice_vector   5.0997753628661222        0.0000000000000000        0.0000000000000000     
 lattice_vector  -1.7508442876366912        4.9051420691521992        0.0000000000000000     
 lattice_vector -0.83019277113420120      -0.23811714267202055        2.7593391448680946     
 atom   2.6443313801652484        4.6917587175533821       0.35982302257128185      C 
 atom   2.5311177975427310        2.0204916110892923       -4.3783563928538206E-003 S 
 atom  -1.6685196061692444        3.0843915793947367        1.9193871385119174      S 
 atom   2.0092417939051836        3.3934988485254305        1.5181008295276635      H 
 atom -0.48689868454144225        4.5776511171607410       0.84071577785813756      H 
 atom -0.49778155889758741        1.6545830196464453       0.87299295631046658      H 
 atom   3.5008477975602634       0.94586652923921599        1.9518002715195835      H 
 atom -0.87225815854450395        1.6904001032338143        1.8550350614515518      C 
 atom   1.0490189163741859      -0.16910089876220122        2.3020937903724707      S 
 atom  0.75050388578211802        3.2497701651673543        1.1099406189121408      S 
 atom  0.12159805092070260       0.39093767916491046       0.25529777091693845      H 
 atom   2.7594861757502862      -0.19705758770441165        2.5024291797624314      H 
 atom  0.78822891044030030        1.6587716370038423        1.0751756960541881      H 
 atom   3.5551889500107650        1.2734785804721160       0.29142359573384391      H 
 atom   2.4684296560412200       0.60007056297668981        1.3448595753005115      H 
 atom   2.7319588579861072        3.6606476535252459       0.18373060065589050      H 
 atom   1.0159609649983106       0.96272128738303775       0.83961685829699229      H 
 atom  -1.3161201577956918E-002  0.42658383463098737        1.8691719400766185      H 
 atom  0.34308589460084871        3.1919740177355673        2.4968251450444203      H 
 atom   2.2229626019659241        1.7737956910330235        1.4016844491007576      H 
 atom   1.0108642117152962        4.7992030824105427        1.1368704558904352      H 
 atom  -8.5477150569287758E-002   1.6748327419166769        2.5488084584102633      H 
 atom   2.3271412993973710        4.7366072447013758        1.3517811181412132      H 
 atom -0.98567876164374357        3.2405338122581488       0.61097240016812659      H 
