 # 18 angstroem -13051.5331843722
 lattice_vector   5.4404462926561603        0.0000000000000000        0.0000000000000000     
 lattice_vector  -1.5303700793202171E-002   2.7423688363278371        0.0000000000000000     
 lattice_vector  0.72746664937920291       -5.4217226621892760E-003   2.7397410970802007     
 atom   1.9047948304717963        7.1521629379755605E-002   1.7047122800922647      C 
 atom  0.74552392346107121        1.3546309148728313       0.72353976470920212      H 
 atom   5.2748416166230232        2.0213313072259700        1.1919158056743359E-002 H 
 atom   3.3365181075913721        1.5654157283585115        1.4950645093717170      H 
 atom  0.52707423712956125        2.7224319009959723       0.88416055811835514      H 
 atom   5.2373251131489349        1.4583849514055052        2.3172217191282765      C 
 atom   5.3486002682785445       0.30802324057305280       0.78784483742133182      H 
 atom   4.1093189644318517        2.5985181021651109        1.2457282503466796      H 
 atom   2.9695847561926878        1.6062807339473317       0.11899190382366952      S 
 atom   1.6978640742999556        1.8002031948066213        1.7689613246175100      H 
 atom   2.8900434444237924       0.29118528126924925        1.8917969931562160      H 
 atom   1.7582657627261136       0.35241638998752817       0.71173809672549004      H 
 atom   1.3072200389051201        1.6185447732486400       0.31733075460400811      H 
 atom   5.1718891246665297        1.7374935065077930        1.3215739627849570      H 
 atom   4.1655035387816728       0.56707528980006305        1.1755740906460459      H 
 atom   5.3760026125535401       0.42255813398629272        2.3031633570603409      H 
 atom   1.2973986916481817       0.63329380619877762        2.3143823990968158      H 
 atom   3.1257009687925996       0.22661805014925038       0.11380788247388790      H 
