 # 21 angstroem -13087.8043176747
 lattice_vector   4.9055832847799632        0.0000000000000000        0.0000000000000000     
 lattice_vector   1.5236069800164864        3.6771301865338950        0.0000000000000000     
 lattice_vector  0.74497580057719459       0.68297722922149540        2.5220692619856830     
 atom   1.8686560180096687        2.1520616092759117       0.26797968376888559      C 
 atom   4.9129160160284702        1.3089708087119611       0.91014313116214229      H 
 atom   1.8556503933484050       0.90178944425305640        1.8848700725447634      H 
 atom   5.9394870854338588        3.5795299161934562        2.0368936468786689      H 
 atom   2.4559300018214567        2.5897885065612134        1.7962272691426946      H 
 atom   5.2330670383447666        1.7778202054288461        2.5100605012017745      C 
 atom   2.3605777522338709        1.4163825375332784       0.81760228490349340      H 
 atom   5.2547561158688714       0.75905820538394686        2.3627603581573435      H 
 atom   4.3109519676132830        3.2510052518442429       0.80495089695096200      S 
 atom   3.3707026733783954        1.2715796082139996        2.0490911237201646      H 
 atom   4.2925033185730497        3.5607832836772868        2.1738832147171872      H 
 atom   4.2665119109961971        2.1292615082936477        2.4759027376780529      H 
 atom   2.1553966161108327        3.8794440055854533        1.2876760842218795      H 
 atom   3.5057451287986732        1.0654363786251200        1.3228101754539654      H 
 atom   5.8367881363043175        2.2401425893775730        1.8189888696371990      H 
 atom   5.7995037893464847        2.2907029817723403       0.60662181342038757      H 
 atom   1.3373608859913679       0.32916470660606761        1.0579355409854889      H 
 atom   5.9624556366441110        3.5536105679382204        1.2837837903329341      H 
 atom   2.0700389029183421        1.3671410095588039        2.3848979428072523      H 
 atom   2.3546844915664980        3.0640821378958263       0.28848243494039827      H 
 atom   3.5807907804086523        2.2606374489320529        1.2613184370114168      H 
