 # 15 angstroem -13015.9937195742
 lattice_vector   4.9393211656489484        0.0000000000000000        0.0000000000000000     
 lattice_vector -0.43096721657460590        2.7434137515366461        0.0000000000000000     
 lattice_vector  0.55581861015641987      -0.13297548966318495        2.6128761313544651     
 atom  0.25683538268676381        2.5535878366543274       0.77033211118510658      C 
 atom   1.7582758313558167       0.99479947999609486        1.3904701860821524      H 
 atom  0.96490193881052289        2.2638314777973476        1.4625697417523686      H 
 atom   1.0578284119137287       0.48706873860297800        7.8890830689750016E-002 H 
 atom   4.0169799235605534       0.80715588584855336       0.73241047566430706      H 
 atom   4.5967153018303781       0.37064583370227028        1.4729837885877584      C 
 atom   3.0877663094335115        1.1895912832395426        1.5714086349693017      H 
 atom   1.6765221082580770        1.6350575258187681       0.41928738846805830      H 
 atom   3.0822266695333735        2.2150261537570093        2.3473335058294156      S 
 atom   3.5139875688548279        1.8814695211085901       0.43160959859597364      H 
 atom   4.9098107163105125        1.1950488472523726        2.0033555630595026      H 
 atom   2.6987390659265080       0.64402640765994101       0.51684074714151351      H 
 atom   2.0803511711316354        2.6452854697190267        1.6249325643812575      H 
 atom   1.4095839531845784        1.2540796123869498        1.9743325740375077      H 
 atom   2.6823044920287066E-002   1.6857039443951916       0.28478392671404573      H 
