 # 18 angstroem -13051.4532970241
 lattice_vector   6.0080629755139414        0.0000000000000000        0.0000000000000000     
 lattice_vector -0.24710537053610412        2.6351879703518950        0.0000000000000000     
 lattice_vector  0.39091145324788990       0.28343938078290265        2.5426940646957163     
 atom   4.1055696520725977       0.85144631633345258        1.9962455030667765      C 
 atom   2.4280707270427357       0.60257572707975826       0.96447673162092973      H 
 atom   5.4815987737871898        2.0005403277451683        1.8182761488065060      H 
 atom   4.1015362341006885        1.1532686563131573       0.20517888744239371      H 
 atom   1.2508907070095883        1.0819847118947101       0.86450816950114384      H 
 atom   2.9178325654818287        1.3344222904177272        1.5068782881111187      C 
 atom   1.5421552214847341        2.3109263829528865       0.70141934599629330      H 
 atom   3.0567692314707973        2.1661909851087588       0.91398348872627377      H 
 atom  0.21893783167936653       0.97890350108353796        5.4699646334161370E-002 S 
 atom   2.3976225805031164        1.7370689720639585        2.2983612081974800      H 
 atom   2.0167488802446276        2.8579994884756159        2.5165741607879992      H 
 atom   1.1296801239317245        2.3699165555367343        1.7761850406877342      H 
 atom   5.6861199382523511        2.7961953259697858        1.6944844343628076      H 
 atom   4.5247253645991963        2.0997218018667598       0.99130554433809503      H 
 atom  -7.1430546309112133E-003   2.2196762955755114       0.68116534437788712      H 
 atom   4.6332867265508391        2.3341880560629797       0.32355621328235212      H 
 atom   4.8539857005196536       0.78359639682786741        1.2626418796764025      H 
 atom   3.6934270486092950        2.5416881961731246        2.3441925797762249      H 
