 # 7 angstroem -45328.3711568083
 lattice_vector   5.0191917574888079        0.0000000000000000        0.0000000000000000     
 lattice_vector  0.72562339578118218        3.9685085545024754        0.0000000000000000     
 lattice_vector -0.44683421785500366      -0.44607788366393242        2.0359586239843166     
 atom   3.2711827943793539        1.6808997558875188E-002   1.0126058676206426      C 
 atom   1.8527842513799058       0.99387912883573459       0.92969210882876230      S 
 atom   3.2941878645915517        2.4920655049274800       0.70809550918162478      S 
 atom   4.2762355531193030       0.38176786462502826       0.19322477650953437      C 
 atom   1.3654611370596164        3.4042215037307373       0.25656477078910245      S 
 atom   5.0878830086411906        1.7835590517589330       0.58185228371067865      S 
 atom   2.3838234010909400        3.2078898548325272        1.6264863535769725      H 
