 # 19 angstroem -13063.9615468726
 lattice_vector   7.0237184689707384        0.0000000000000000        0.0000000000000000     
 lattice_vector  -4.0482250786424777E-002   2.6347737012711105        0.0000000000000000     
 lattice_vector  -7.7871446787148288E-002   1.2761585455815978        2.2546444733490456     
 atom   6.7639011369598183        2.7676059921044072        2.2039061545729490      C 
 atom   1.0684730107135059        1.4313255094335491        1.5102391770849595      H 
 atom   4.4731975845880116        2.4816471686727835        1.7491987154898374      H 
 atom   5.9798383586633257        2.4607767136029199        1.6006152200062338      H 
 atom   4.7590503266651005        2.8597643258910908        2.3114398368529780      H 
 atom  0.96213820420499951        2.4491827907045689        1.6613163117204348      C 
 atom   5.5896020500363095        2.5534736390039048       0.30918959541976654      H 
 atom   1.1265331870257114        2.8695643424691197       0.72832917441151601      H 
 atom   2.9978800661571245        1.3260022847780790        1.3039488703333089      S 
 atom   2.4298305989219777        2.7099540743841048       0.40821117058904666      H 
 atom   3.9733897733736612        2.4151221960566849       0.21356183126815612      H 
 atom   4.8404643313596738        1.4602961712175737        1.4041095278557221      H 
 atom   5.5536865895501650        1.3715067901576179        1.2356080362393358      H 
 atom   1.7584189544304536        1.5201309538869106        8.6368070593531451E-002 H 
 atom   6.7398306583015462        1.0855355587572122       0.89731354608414027      H 
 atom   4.0164066953951245       0.49065924802884986       0.75845336504567107      H 
 atom   3.0865791134728009        2.5921177028312772        1.9841025218219679      H 
 atom   6.8172711017773251        2.5159382497110054       0.10647757195964933      H 
 atom   5.2495466272146469       0.36213441288334552       0.72166445295017245      H 
