 # 18 angstroem -23854.8923606736
 lattice_vector   2.6631753395721680        0.0000000000000000        0.0000000000000000     
 lattice_vector  0.11023362629811645        2.7461828553549763        0.0000000000000000     
 lattice_vector -0.69613583887901331      -0.83840731584919170        6.2435907476830597     
 atom -0.15174594896551172       0.97329716105734909        6.2264775918489237      C 
 atom   1.8945896893642895       0.38719969060334680        2.8028594686340611      C 
 atom   1.2840640093913653      -0.23845922707633732        4.2313093586654702      S 
 atom   2.5595289767542497        2.4753033788133076        1.3753466304213784      S 
 atom -0.30834406144790144       0.19025723669532948        4.8029495005511595      H 
 atom -0.61335824319587873        4.0917292138321119E-002   6.1493191629267860      H 
 atom -0.47361998550801265        1.5423971762381199        5.4314115556940141      H 
 atom  0.66688473003390458       0.69183238884180054        1.3890275946089738      H 
 atom   1.6978969449522152        1.5052694112149401        1.3358161788360974      H 
 atom   1.4373479750760996        1.3195163699788750        2.6833147871320624      H 
 atom  0.18381333055408317       0.74296373076425282        3.0545514304378312      H 
 atom   2.0623028953701343        1.3970068825680144        4.1440695265832161      H 
 atom  0.65739034916702355       0.90584621156520195        4.4350865485405588      H 
 atom   1.6781897944487789       0.40075309820502691       0.52259419070353252      H 
 atom  0.60445179369096069        1.8109135696284626        2.2297116623604940      H 
 atom  0.85927776934304501       0.84053512422168353        6.0528999169458597      H 
 atom  0.83805769207240566      -0.58022773188305088        5.4339183924104724      H 
 atom  0.40326424903152130        1.9487922848903405        3.5536636105575936      H 
