 # 6 angstroem -45316.7449580942
 lattice_vector   2.2389080349492363        0.0000000000000000        0.0000000000000000     
 lattice_vector  -4.9605180723458415E-004   4.2784342490126406        0.0000000000000000     
 lattice_vector  -1.1188015603592076      -0.11139398304639997        4.0869182135028828     
 atom  0.88406181637086734        2.5587102715950620        1.7609067223115489      C 
 atom  0.88358386070375750        3.9213749700943548        2.7094868889487054      S 
 atom -0.23617625123787270       0.45637691028203886        1.0590972565712227      S 
 atom -0.23540953223716088        1.8190617981318780        2.0075269263725071      C 
 atom -0.23622591131577517        1.2392181253662478        3.5839562300038614      S 
 atom  0.88253537840142815        3.1382866462796102       0.18467500743822629      S 
