 # 6 angstroem -45316.8146490797
 lattice_vector   2.1432465974651365        0.0000000000000000        0.0000000000000000     
 lattice_vector  0.84823953951624864        4.0888806031121865        0.0000000000000000     
 lattice_vector   5.1751583444706602E-002 -0.32280193477034386        4.4625892602336865     
 atom   2.2915903147901697        2.3906774749161088        4.1384890926697580      C 
 atom   2.2464506755455447        1.1299030807993251       0.20731717365592356      S 
 atom  0.36265024635558346       0.19878279538121529        2.8533000753508122      S 
 atom   1.2173912923405246        2.7041310174153668        3.3845770671290500      C 
 atom   1.3752982560596825        1.8402952024326227        1.9535963310504731      S 
 atom   2.0818828335585420        3.5774569123160069        1.1069652204765479      S 
