 # 6 angstroem -45315.8661902269
 lattice_vector   2.5675192243649461        0.0000000000000000        0.0000000000000000     
 lattice_vector  -6.5521649248249914E-006   3.0884762083398005        0.0000000000000000     
 lattice_vector -0.58391601517213720        7.6586890258563693E-004   4.8832138208760956     
 atom  0.16777008754265699        2.5855652880606228        3.9589098300325531      C 
 atom -0.11243032789243378        1.0408247833306883        2.1004931401499602      S 
 atom   1.5164812441070650        2.5847986313347349       0.58292929113083058      S 
 atom  0.79285425290550970        1.0404876119567283       0.73170636639782882      C 
 atom   1.0724462565056272        2.5849069916966405        2.5903545669593271      S 
 atom   2.0116716528295235        1.0411553290996749        4.1079415481633799      S 
