 # 6 angstroem -45316.8747902506
 lattice_vector   2.0992845843650674        0.0000000000000000        0.0000000000000000     
 lattice_vector  -2.7871912435872434E-005   4.0818475201715403        0.0000000000000000     
 lattice_vector  -3.3748405607412195E-004 -0.74255766438541471        4.6004494354602237     
 atom   1.8576422995558854        2.0088872654375103        4.0467465178770663      C 
 atom   1.8585414582168960        1.4673084367633955       0.46974426454251261      S 
 atom  0.80795966985170531        1.3368242561131253E-002   3.2732187280946308      S 
 atom  0.80813929356523917        2.8109750096317327        4.2963807290168115      C 
 atom  0.80783633461311077        3.7202780828981430        1.3632832439475724      S 
 atom   1.8581083166698098        1.8423588746407589        2.3795920343489123      S 
