 # 6 angstroem -45316.4724599024
 lattice_vector   3.4864438293938358        0.0000000000000000        0.0000000000000000     
 lattice_vector  0.36526355203295346        3.3389175565300744        0.0000000000000000     
 lattice_vector  -1.6233637155833793       -1.0499707632939932        3.3532700554856598     
 atom  0.73920415168172648        4.2035897109591212E-003   1.8312890962635893      C 
 atom   1.9805400503931945      -0.34095611316660629        2.8789766282888354      S 
 atom   2.7986599149757683        2.5972055814978652       0.22278021689686520      S 
 atom  0.55366138730910630        2.2524926645931092        1.2703608713718213      C 
 atom -0.36660949938590576        1.2086443275729635        2.2405738941309723      S 
 atom   1.6594966465026135        1.0476245105092474       0.86123982364944496      S 
