 # 6 angstroem -45316.9026946134
 lattice_vector   2.0880449744454399        0.0000000000000000        0.0000000000000000     
 lattice_vector  -1.1202897478454785E-003   4.0981439327464741        0.0000000000000000     
 lattice_vector   1.0435811192827773       0.54850081796615213        4.5557565161043794     
 atom   1.8124878752610210        4.2835123457339863        3.1303782714245414      C 
 atom   2.8568263492842929        2.1905846664276027        4.3785129565197254      S 
 atom   1.8136512266355109       0.98135502301783051        1.6646510268874346      S 
 atom   2.8576988392613849       0.60682698942061652        3.8462080915714560      C 
 atom   1.8131719057138720        2.6996064971049027        2.5980988463962364      S 
 atom   1.8139678580688832        3.3603646813980812       0.75621845953609879      S 
