 # 6 angstroem -45317.0839363237
 lattice_vector   2.1250416616521748        0.0000000000000000        0.0000000000000000     
 lattice_vector  0.92382636285347008        3.2154008982885167        0.0000000000000000     
 lattice_vector -0.15260436933799301       -1.4605067900528734        5.7380441908889201     
 atom   1.2852911019823974        1.9371900081026874        1.4744251782493025      C 
 atom   1.3605282786635180       -2.1656713396461086E-003   4.8766974527814346      S 
 atom  0.30016719848332180       -7.3958056305034825E-002   2.6584054052520654      S 
 atom   2.3554518316423270        1.1054665976898006        1.4510800884664514      C 
 atom   1.2146969597763864        3.1166963216529537       0.26720261802444428      S 
 atom   2.1290436415845213        1.5844091809751417        3.7867307376477060      S 
