 # 6 angstroem -45316.5600247271
 lattice_vector   2.5390732820467856        0.0000000000000000        0.0000000000000000     
 lattice_vector   5.3939319079970740E-004   3.3765751059177109        0.0000000000000000     
 lattice_vector  -1.2688151475048182       0.30385512591620067        4.5152434524764136     
 atom   1.8091558435822683        2.2819882624205339       0.16914383157678481      C 
 atom -0.72912315454160881        3.6150855780887272        4.3402304132316614      S 
 atom  0.53903455254667576       0.56399989108332449        1.6631578987807707      S 
 atom   1.8084528612254447        1.5931703351764144        1.3187876381990296      C 
 atom  0.53982091522595699        1.4587576703251910        3.4580394478011800      S 
 atom   1.8091714547847015        2.7204850434406782        2.5450888821942792      S 
