 # 6 angstroem -45316.2760321218
 lattice_vector   2.1222170934513604        0.0000000000000000        0.0000000000000000     
 lattice_vector  -1.0614727070848002        5.0120407252609462        0.0000000000000000     
 lattice_vector  -6.5212492645711075E-005   1.6013353972163467        3.6913491901054654     
 atom  0.16054092927990532        4.1894854285859733        2.0582233516296529      C 
 atom  0.15965654702461185        2.5808988125612871        2.5152423798602679      S 
 atom   1.2218583783676520        2.7504273656478264       0.46539491573568692      S 
 atom   1.2216199011459956        4.2482614705229578        1.2068347561070072      C 
 atom  0.16058007441212199        5.6873545820012747        2.7997512809728247      S 
 atom  0.16085432001224964       0.84485004711173695       0.74987417163652192      S 
