 # 12 angstroem -13995.8633752064
 lattice_vector   3.6218818631927250        0.0000000000000000        0.0000000000000000     
 lattice_vector  0.86485956940177378        2.4406203276490848        0.0000000000000000     
 lattice_vector   1.0914858992539125      -0.26423433294052329        3.8842667578176613     
 atom   2.7645354485278735       -1.2120135401206999E-002   1.4711906122327294      H 
 atom   3.8673071164986226        2.2011226761511589       0.17784195310873577      H 
 atom   1.7933217511731669       0.85204209725265012       0.24586174939703082      H 
 atom   3.8721386905326427        1.6904492928474339        3.5117905702197341      H 
 atom   2.1975053685903738       0.91673032257634612        1.8930521341145257      H 
 atom   3.5439636623339199       0.91083144877949540       0.76610096098456826      H 
 atom   2.8962049735096267       0.48241129829746304        2.8335574187812211      H 
 atom   2.1971823257906467        2.3252718242061552       0.99933410023868630      H 
 atom   4.0371484886004332        1.4853120391502852        1.4984780348227469      C 
 atom   3.8197843109070799       0.97058839272937025        2.7475181417931869      C 
 atom   1.7357870355850016        1.4215287800175116        1.1209327752446434      C 
 atom   1.3168085834261283       -9.5474150976355546E-002   3.1666913659340405      S 
