 # 20 angstroem -4305.11872509521
 lattice_vector   2.7243890604862990        0.0000000000000000        0.0000000000000000     
 lattice_vector -0.19134006027911238        2.4154066598384714        0.0000000000000000     
 lattice_vector -0.26988424887551699       -1.1070258367781378        6.6157585877167353     
 atom   2.2674961742239264      -0.20337486484464398        5.9153600204806978      H 
 atom   2.2164721528038651       0.25854770925942655        2.4238790676150122      H 
 atom  0.65026946316909406        1.1482826692117261        5.6137585217447530      H 
 atom   1.9035616744779540       -1.1881438285358523E-002  0.40808165645784034      H 
 atom  0.51646958440869362      -0.21863369664035978        3.2551930707175241      H 
 atom   1.4068050121054345        1.6658645315428753        1.3960506480194224      H 
 atom  0.65068606409394847       0.26370993000328752        1.2622593677975067      H 
 atom   2.0774044488039394        1.0737667871841230        5.2021494452341939      H 
 atom -0.18930890124404440        1.5885916669571158        1.8946160869687674      H 
 atom   2.0029201671915264      -0.30381651395068565        2.7926461074790216      H 
 atom  0.10975939378173243        2.0041291210873005       0.41223223673957793      H 
 atom  0.99703954140064366       0.85098200219451448        2.7777547123480599      H 
 atom  0.28342768885901304      -0.19709581374308621        4.8148879064257066      H 
 atom   2.4053732510435473        1.0387073075979760        3.5635063080677476      H 
 atom   2.0601777264023813       0.46387143092264005       0.92696238272489362      H 
 atom   1.0988961221374334      -0.12364668622571397        6.5550251315531387      H 
 atom  0.69756719824468072        1.0872988983684153        1.8401453134553953      C 
 atom   1.0421933824084306      -0.18552243320260906        4.1433619802795789      C 
 atom   1.6522648289886483        1.0658737843046884        4.2642042459279272      C 
 atom  0.29634061563185249       0.42979979727220841        6.2528128382125043      C 
