 # 20 angstroem -4304.46092462797
 lattice_vector   2.4477052213440968        0.0000000000000000        0.0000000000000000     
 lattice_vector  0.36978606024544897        2.6233033183831624        0.0000000000000000     
 lattice_vector  -2.5837927884525953E-002  -1.1637227704407020        6.7691815848998846     
 atom  0.30853412800827446        1.3756771854826979        2.4701158879444578      H 
 atom  0.29509594815923568      -0.65750987234036529        5.8846043288683729      H 
 atom   1.5480441537743117       0.26757154263896005        5.9115802297940085      H 
 atom   1.8428022529923733        1.6784147304112160        4.9028018590552289      H 
 atom   1.9182176465827445        2.0245155429439365        3.0165201267560096      H 
 atom  0.44748327595311399       0.30881036751639740        6.6670028493499043      H 
 atom   1.9690804836556197        1.8207010144589302        1.2389249104195053      H 
 atom  0.45359626215588772        1.4066240142240420        4.0053313460753879      H 
 atom   1.6556376244147835        1.5278445536327703        3.4368181512712064      H 
 atom   1.7425094499253664       0.51691468006487207        2.5265213708907712      H 
 atom  0.41985535018023440      -0.24746377836880132        1.9217206999719718      H 
 atom  0.26666904964530508       -5.4150143692170610E-002   3.3519024010125822      H 
 atom   1.5718403117036330        1.4740380966476636        6.5365076613534177      H 
 atom   2.5094635652512434       0.35978665639770246       0.62177502211676516      H 
 atom   1.1349971878166301       0.96310882507872275        1.0660936893454938      H 
 atom  0.59684682514200771        1.3226089606692970        5.6184682785340740      H 
 atom  0.88456875088780806       0.65647579116886623        2.0089455338947158      C 
 atom  0.30458304480759141       0.42689800156368296        4.2697727391797997      C 
 atom   1.5150661546751609        7.0523533863114232E-002   4.8940912838830037      C 
 atom   2.3172590314436912        2.1887325074069666       0.35369125963214726      C 
