 # 20 angstroem -4306.32593423497
 lattice_vector   2.6223354862690949        0.0000000000000000        0.0000000000000000     
 lattice_vector   5.1454843076634234E-002   2.6538987518372412        0.0000000000000000     
 lattice_vector   1.0003842702228825       -1.0628010522450697        6.2395947703328360     
 atom   3.4106709257042547      -0.19252042578065912        5.9354962234720734      H 
 atom  0.81182095905638063       -2.3363560160581293E-002   1.3275357636285572      H 
 atom   3.3802950993969847       0.97939284170009122        5.1169759464117570      H 
 atom   2.4608230026592044        2.1152932578934580       0.60824237206627707      H 
 atom   2.1481467980166808        1.1447322186393147        2.8657643793666647      H 
 atom   2.1489838414563454       0.93955237801124503        1.3532729894183695      H 
 atom  0.88492411680643657        1.3382915324419149       0.37860341794847330      H 
 atom  0.66884117605174187        1.2293526914763460        3.6594849509197647      H 
 atom  0.95651830417400396      -0.12461482000359446        2.8168862696124122      H 
 atom  0.71370110814782850        1.4566939342099914        2.0815918915972391      H 
 atom   2.4668196539867795      -0.33316619056224128        2.4894849458932673      H 
 atom   2.1900758559283608        2.2427977394079885        1.8630831225677433      H 
 atom   1.9914148913373411       0.35110165868583476        5.3141897094015764      H 
 atom   3.0513860741508716      -0.28478518680479314        4.2602344084008230      H 
 atom   1.7263566794028522        1.6309056563995026        4.5542343479914393      H 
 atom   2.1314171863375324        1.5162929373246701        6.0142282250919568      H 
 atom   1.1207823583650971       0.95369084714770613        1.2897105755494755      C 
 atom   1.4468465289091479       0.58899822660102696        3.3877513139475810      C 
 atom   2.0603790508480140      -0.10105982166702727        4.4060107501812240      C 
 atom   3.1570540929363458        1.4891961550410708        5.9755981119088242      C 
