 # 20 angstroem -4306.06499381378
 lattice_vector   2.5504578905729902        0.0000000000000000        0.0000000000000000     
 lattice_vector  -7.7925247803287412E-003   2.7701348425003478        0.0000000000000000     
 lattice_vector  -1.2628239342426641        1.3118900321052067        5.9887842781673051     
 atom   2.2500279671199088        2.9242423912215547       0.77080507838324042      H 
 atom  -6.8678437377455645E-002   2.8630943737633840        2.2915310629122922      H 
 atom  -4.1924514193881948E-002   2.3108461882446845        4.1146474303270324      H 
 atom   1.3481268123617653        2.9145811913734518        4.6833958612204327      H 
 atom -0.19765393781972648        1.2702626173340912        1.6954977324069544      H 
 atom   1.3018870385904759        1.4039972053130636        5.2671667948810796      H 
 atom   1.0970857106883134        2.2481572575409290        1.7910113233140110      H 
 atom  -1.3876538781009216E-002   3.6375492852107389        4.8041963356135389      H 
 atom   1.2275928344835476        2.6649901578432980        3.3345126324454855      H 
 atom  0.93737524379443771       0.62343235446582324        1.1777361557457446      H 
 atom   7.6735346378102115E-002   2.3859046156072643        5.6280957121915112      H 
 atom   2.4087197552685975E-002   2.4397936144453984        1.1640946912952206      H 
 atom  0.23110385427150953        1.4751831287432948       0.36862546366032589      H 
 atom  -1.9369416918409189E-002   2.3338869933844104        2.7263711622979532      H 
 atom  0.92479146970127879        2.6208928597270509        3.0678259770135236E-002 H 
 atom   1.4338658268242697        2.2391404684785443       0.32668398085370093      H 
 atom   1.3496403576161531        1.2582426692771560        1.8959074791842474      C 
 atom   1.2214305581575831       0.92876561665866308        3.2530017801565245      C 
 atom  -5.0107450530968024E-002   1.3124151478315602        3.8635858664749665      C 
 atom   1.0899246153778832        2.3804797113886731        5.5111747292369602      C 
