 # 20 angstroem -4306.81245459824
 lattice_vector   2.5225457115839065        0.0000000000000000        0.0000000000000000     
 lattice_vector  -6.2014309769021433E-003   2.7416162290037160        0.0000000000000000     
 lattice_vector  -8.2170266615993314E-003   1.3902950374885554E-002   6.1610927554646375     
 atom  0.91421990763298200       0.28231625162244334        5.3983367215446938      H 
 atom   1.0311115288383847       0.37289527608455680        2.3850639503245743      H 
 atom  0.69447639703316355       0.55679538711328513        1.1344760131564213      H 
 atom  0.84310842424585686        1.5395972423185385        4.7315934950112348      H 
 atom   1.0197650767007347        1.7631859398326188        3.2429265076716418      H 
 atom   9.3785162178337850E-002  0.52765653978172011        8.7300440991278858E-002 H 
 atom   2.1635845644602729        2.0326042853886372        5.5820677413617057      H 
 atom   2.2359179214079110       0.72952008011221836        4.9100249930449840      H 
 atom   2.4372916788093142        2.2030763182494422       0.83663808989399313      H 
 atom   2.2450996070697276        2.0852266581392724        4.0438379433864808      H 
 atom   1.0980696879911405        1.8431778933297025        1.7025281109886794      H 
 atom   2.4238020474014643        2.2946822365872288        2.5630386998187888      H 
 atom  0.83328270018300765        1.6246334372693561       0.29529155782766892      H 
 atom   2.3222245657887726       0.81312352245439123        1.8807426880186224      H 
 atom   1.3089627037185747       0.29527837926862222       0.90657960375592483      H 
 atom   1.9720467055771762       0.81768728349313635       0.12608427057552835      H 
 atom   2.1142055747550561        1.8040158335018197        1.7267306528603072      C 
 atom   1.0050324146309988       0.74061970680857703        3.3489844898916838      C 
 atom   2.2635099137236190       0.36716920589247926        3.9437311340542922      C 
 atom   1.1455486157398296        2.0405776006972429        5.5644370203342515      C 
