 # 20 angstroem -4306.62209926313
 lattice_vector   2.5320211434299114        0.0000000000000000        0.0000000000000000     
 lattice_vector   5.2648792953372157E-003   2.6911478946703364        0.0000000000000000     
 lattice_vector  -1.2620335463842229       -1.3066468846669361        6.2668457319503563     
 atom   1.0686181585656382       0.21377718708762164        1.2757618767722632      H 
 atom -0.47847934078775195        1.6394332600138797        4.1889148080389456      H 
 atom  0.78236653843550963       -5.3758486027668480E-002   5.5575618807787910      H 
 atom -0.47942923916806118       0.32394577403578356        5.0421763290576926      H 
 atom  0.68787819232272862        1.5003379167151565        1.8392045810860622      H 
 atom   1.0410805271158217        1.6496816429542371        1.6640197496847770E-002 H 
 atom  0.55840400297491577       -7.1808675229085961E-002  0.88708280477613366      H 
 atom  0.78107112019703195        1.3537237551661527        3.3747292694717430      H 
 atom   2.0899328620641855       0.35127904031333274        2.0155438056717641      H 
 atom  0.62533834099986862        1.1559227636064908        4.8770803598866426      H 
 atom   1.8149133031097566        3.0400229553486834E-002  0.36580180954659730      H 
 atom  0.79712548792998561       -2.2736468180471286E-002   2.5235115375698585      H 
 atom -0.56879453098602795       -1.1480706516439543        5.7202489359889999      H 
 atom   1.8762688356672079        1.8271595256584383        2.6921769424285169      H 
 atom   1.7925743900374655        1.5915882896809461       0.94338300307930478      H 
 atom  0.56624809385271002        1.3217584278025012       0.42206075636880613      H 
 atom -0.31971590860965438        1.3535053504384607        1.8554126558115116      C 
 atom  0.81002241284958798       0.33475047279789716        3.4880904994932309      C 
 atom -0.45647458033765653       -3.2342990681014837E-002   4.0772081611728508      C 
 atom  0.95141059748405055       -1.0484982798854183        5.7092407596463275      C 
