 # 20 angstroem -4303.54090674214
 lattice_vector   2.6145838523170570        0.0000000000000000        0.0000000000000000     
 lattice_vector  0.58556789699763667        2.7612567721976755        0.0000000000000000     
 lattice_vector -0.55176232664207614       0.61440258120482094        5.8969353058489258     
 atom -0.26702719807111330        1.7549027184108930        5.3846136042634631      H 
 atom   1.2628716337079413       0.20410349552689497        1.0631078576463111      H 
 atom  0.87485308386581839        2.3571357847066889        1.9885760077033166      H 
 atom   1.6425785893314651        1.2361939569564240        1.0298873383125566      H 
 atom  0.25234297183092513        1.1296366742642860        4.1615115677309493      H 
 atom   1.9039757065529368        2.2258292986282990        1.2034367452874659      H 
 atom  0.85432562273082358        1.0825895236650209        5.6307991632831076      H 
 atom   2.3462018153868378        3.1225227120713575        4.7624906753454850      H 
 atom  0.14916490809566368        9.2365163247836321E-002  0.42345179384212772      H 
 atom  0.85033244948601028       0.68889311019776944        2.3771293869304153      H 
 atom  0.71588830622680910        1.3561632668221641        1.0664442611439904      H 
 atom   2.8697118522049605        2.7369776762627822        1.9600419285463415      H 
 atom  0.99470099830062519        2.7392458525016457        5.6540432284858593      H 
 atom   2.3125898498818409        1.6805907138358682        2.4225927245632342      H 
 atom   2.5249964670095486        1.0453403035445201        1.1570283769302157      H 
 atom   2.9757951983988882        2.2339312840914629       0.33311727501644811      H 
 atom   1.5752218921078536        1.1694248562888572        2.9478084709081669      C 
 atom   2.7673940202338478        3.0615609501600454        3.8255471009736106      C 
 atom  0.99030862924526675        2.0303936154050510        3.8634488250932040      C 
 atom   1.3508477607248421        1.8887756014273747        5.1929646713246775      C 
