 # 20 angstroem -4306.80751423556
 lattice_vector   2.5115884583695092        0.0000000000000000        0.0000000000000000     
 lattice_vector  -9.5277868060005232E-003   2.7518438663942484        0.0000000000000000     
 lattice_vector  -2.6195686400146270E-002   2.2090980081517542E-002   6.1686969042349524     
 atom   1.3833214800453411        1.2882222319799019        4.6951411221629478      H 
 atom   1.1505436122534347        1.6116057434937598        1.6545907399757172      H 
 atom  0.94071199672218220       0.24327935613797214        1.0640722717512667      H 
 atom   1.3880363073407234        3.2116936093165821E-002   5.3601533290007612      H 
 atom  -1.2194997834685877E-002   1.8654917983906574        3.9729033148201864      H 
 atom   2.3560697533467554        1.9391847695294568       0.74011154077521202      H 
 atom   2.2179834405589949       0.57624732457429806       -4.1792069357681573E-002 H 
 atom   3.0457746662569351E-002  0.50134532748351890        4.8467970230269017      H 
 atom   1.6123741025762228       0.16700624461684901       0.86166529433991357      H 
 atom   2.3366055634489920        2.1116377798396129        2.4746794617201155      H 
 atom   1.3189353942284801        1.4121654002760395       0.27211504736583259      H 
 atom   1.2224617161324991        1.5425463518579920        3.1865824874412256      H 
 atom   6.0074594463055304E-002   1.8157723275423725        5.4891439955485355      H 
 atom   1.2105387526511069       0.14677164338207194        2.3265015728425293      H 
 atom  0.33835194833078963       0.28610066861902600        7.9106264561718417E-002 H 
 atom   2.3562238850965542       0.61472579372858693        1.8187497547107236      H 
 atom  0.13194561151412681        1.5842533738122990        1.6581401282852257      C 
 atom   1.2400288264597767       0.51968277499634652        3.2880025663706278      C 
 atom  -1.1865204051839251E-002  0.13785791056370159        3.8813032708067423      C 
 atom   1.0787669214732634        1.8176309446610608        5.5122334911717532      C 
