 # 20 angstroem -4306.78979750382
 lattice_vector   2.5512623625461006        0.0000000000000000        0.0000000000000000     
 lattice_vector   1.3706917766841825E-002   2.6977706964293060        0.0000000000000000     
 lattice_vector  -1.2229840443251946E-002  -3.9837087500178239E-002   6.1832446173836457     
 atom   1.9364362924156731       0.23016905411332056        5.2832932000011708      H 
 atom  0.57462371158766068        1.4724968713556212        2.1460991210708711      H 
 atom   1.8335675946026981       0.26647336720384501       0.31965069032525412      H 
 atom  0.59552496291925205        2.5190036130042541        5.8111260093911143      H 
 atom  0.64585944344578061        1.2673758131420965        3.7388242045412921      H 
 atom   1.7032012591241610        1.2154050581328093        1.2557984115822960      H 
 atom  0.40849916091504712        1.2535055741998580       0.67809297962931114      H 
 atom   1.9377201049947421        1.5285011031207314        4.4692696664372482      H 
 atom  0.59343653248733297       0.30562040986915506        1.6049356978970364      H 
 atom  0.70151160533238877        2.6844917904435066        2.7756313611831178      H 
 atom   2.3137941726267548        7.3286416029913074E-003  0.77024534966241631      H 
 atom   1.9087717515132092        2.5704381171638619        2.2313603082131483      H 
 atom  0.52350382662658601        1.0252887185356068        5.1513671084674133      H 
 atom   1.7694553459024103        1.1046683090733824        2.9744951244714195      H 
 atom   1.8378856747607246        1.4891361201323636        6.0209393132522875      H 
 atom   1.0213960649852072        2.6537504729411192        1.1475819291833584      H 
 atom   2.1075285391402239        1.5702659131124981        2.1334618824837013      C 
 atom  0.67678450190525374       0.23384965314730616        3.7651680191370516      C 
 atom   1.9621682245023597        2.5404729625951874        4.3265003395879589      C 
 atom  0.81750900296962725        1.5359489507887480        5.9828471128007319      C 
