 # 20 angstroem -4303.69688485888
 lattice_vector   2.5242910803537439        0.0000000000000000        0.0000000000000000     
 lattice_vector -0.12027249481043137        2.5263206333769492        0.0000000000000000     
 lattice_vector  0.46073665446930739       0.21904519393201399        6.7021160560922111     
 atom   1.9769609180682259        2.1747671763188197        5.1978445998301677      H 
 atom   1.7000434289977389        1.0635706706622055        3.0246311253681406      H 
 atom   2.2811605405537163        1.6763659818957724       0.82259497495720424      H 
 atom   1.2613296949576642        1.6808603300601168        6.6061233711605105      H 
 atom  0.74611622576052006        1.8021217016973718        4.1000391403824024      H 
 atom   1.1653801824966452        1.2753993809146718        1.3830969883607043      H 
 atom  0.54973134492403242        2.6761804574325549        6.3032521003224256      H 
 atom   2.2145968800816793        1.3643437348498619        6.1096834839490750      H 
 atom   2.3047589226473360       0.90386437488077465        1.0218634931478878      H 
 atom  0.60591630371118577        2.4059596664709431        2.8530309963362237      H 
 atom   1.0316720163532480       0.10036019759372254       0.78278037184033145      H 
 atom   1.8283041846135160        2.4119109729379127        2.0016199921333144      H 
 atom   2.0183922479172156        2.2945362074570612        3.5302961327738704      H 
 atom  0.20993873178665726       0.91147297365550839        2.4737140218491147      H 
 atom   1.4716329304098876        2.3899819452819528       0.33775836986440888      H 
 atom  -3.5058984003656743E-002   2.5584105748442623        1.3631514599216183      H 
 atom   1.0444541838603210        1.5668544627147765        2.4097412133336915      C 
 atom  0.84054020356170778       0.95026030611603363        4.6180214599788245      C 
 atom   2.1120855824303169       0.29999871295547720        4.4096807785329615      C 
 atom  0.66506434561112782        1.1137678317713602        5.9699701726979075      C 
