 # 20 angstroem -4304.45777513103
 lattice_vector   2.5241182877159978        0.0000000000000000        0.0000000000000000     
 lattice_vector  0.28817090167200782        2.5884488361832698        0.0000000000000000     
 lattice_vector  0.50035678244388060        2.6449308489954821E-002   6.5042539087247473     
 atom   1.8356918025246376        2.2300486055159152        1.4985146265986911      H 
 atom   1.7447167417114353        2.2620706141861633        4.6822925844975103      H 
 atom   2.8672804708273780       0.74260088679519531        4.5696479250665121      H 
 atom   2.8050936514842926        2.1745044281555348        4.9463006394872231      H 
 atom  0.82595916717619722       0.22669691665362926        2.7221554978808920      H 
 atom   3.1464080413581152        1.7574338096794102        6.4440686535351723      H 
 atom   1.0494394351105052        2.3527706527573784       0.52490691042258963      H 
 atom   1.8081148209225102       0.95837213698031354        4.1220350340571663      H 
 atom   1.6301330427484195       0.87253950826199345        2.3001082935359225      H 
 atom  0.61071026542392937       0.34241512164039317        5.9193160633591697      H 
 atom   1.5398229183609795       0.78321081176288077       0.73349876930474345      H 
 atom  0.56339082921907968        2.4377943396477235        1.0387962502039145      H 
 atom   1.7096625769388949        1.8110534498492548        5.8984522580246175      H 
 atom   1.9365108409827454       0.13787148950025616        3.4288307617133693      H 
 atom   1.6810348415245882       0.42004705236915041        5.6145846186096353      H 
 atom  0.48135501391741797       0.98953147389080642        1.4068753831865521      H 
 atom   2.3696761491646599        1.5137964785916154        2.0252905156341940      C 
 atom   2.9801227000086210        2.1223230134585069        3.0762640225162023      C 
 atom  0.92695881945941283        1.5641903883967738        4.2344610801284484      C 
 atom   2.3607633304256606        1.0491930581359021        6.2966748053745754      C 
