 # 20 angstroem -4306.06195882304
 lattice_vector   2.6711501458767972        0.0000000000000000        0.0000000000000000     
 lattice_vector -0.44597409641185365        2.6479152559370611        0.0000000000000000     
 lattice_vector  -7.2227539892414497E-002   1.2972270365225749        6.1174634109276749     
 atom   2.1590640052382186        1.2344122297322317        5.3535179640247073      H 
 atom   1.0722300160642004        1.8750678546202511        2.0519642061032286      H 
 atom -0.18768179641234012        1.9462523089982571       0.67107076319660341      H 
 atom  0.20028084867184440        2.6641138602909336        5.3249493054422583      H 
 atom  0.26523134852031788        2.1761643030363409        3.7066650060080999      H 
 atom   1.9802370759469965        1.0763899884486592        2.0275477115448610      H 
 atom   6.4607926579838201E-002  0.68513892103448470       0.52211773822129248      H 
 atom   1.4804704138386087        2.4624442376279476        4.4739069779294693      H 
 atom  0.74930378936187847        1.5600379909506803        1.4953868532693060      H 
 atom   1.6003394951826406        2.4009033840878571        3.0058540124132769      H 
 atom   1.1659680541547501        2.8121204965845545        1.0074553431232602      H 
 atom  0.26144600124148382        2.7400911530914178        2.0585838006416939      H 
 atom   1.0150722451467589        1.4608715860773460        5.4973542840411493      H 
 atom   1.5183991189966222        1.1226304698669822        3.6881801243192607      H 
 atom   2.1514180535724963        2.0090651090389904        1.2897919926926968      H 
 atom   1.3967572696227482        1.6073401838750274       0.11698237052900173      H 
 atom   2.1708219563766513        3.1554844335148564        2.5985639573789565      C 
 atom  0.49889801098800995        1.1829585642538005        3.6882485741766149      C 
 atom   2.1654331951130446        3.1669682022261059        4.7823504635863774      C 
 atom   1.0597248450263070       0.65699159539213192       0.27537139814174999      C 
