 # 20 angstroem -25911.7543104942
 lattice_vector   6.6824339948260807        0.0000000000000000        0.0000000000000000     
 lattice_vector  0.87398000890219429        3.5547413126773550        0.0000000000000000     
 lattice_vector -0.12488614817459898      -0.89432039008340791        2.3682778584534949     
 atom   5.8469923276739797      -0.37381673789452136        1.0576800861985332      C 
 atom   1.4354759667226753        1.0802043387575195       0.18059083981369439      C 
 atom   3.9897275710522444        1.1746979230892522       0.18734133420200444      C 
 atom   2.9160799397578199        1.6100521933142526        1.8904542131975275      H 
 atom   5.1439315316082794       -9.9626812577852747E-002   1.7671489671229248      H 
 atom   5.2710681873830945        1.9410184756479376        1.8430078326438266      H 
 atom   1.0153610097818977      -0.12179013498691325        1.5723802267463098      H 
 atom   6.1469088135542878        2.4030287200680576        7.6938883851867104E-002 C 
 atom   3.9172468734027270        2.9483291480009366        1.4925673787432499      S 
 atom   1.9328282269087849        2.6096137256606164       0.14646909321603918      S 
 atom   4.1682047856236020        1.1663689338664545        2.0884708136267438      H 
 atom   2.1447523929574834       0.52353069005032993       0.78313733551328957      H 
 atom  0.58940074695735500        1.1782956818589752       0.76745428845553265      H 
 atom   3.1967531527824700        1.3403404670229140       0.83828332209002099      H 
 atom   6.7389635263309682        1.2098441726850893        1.7747317277190842      H 
 atom   4.9608597260236413        2.8526337361897793       0.75249716478774309      H 
 atom   6.2823647035810195       0.44435455861414658       0.60952980492968978      H 
 atom  0.72260673853933355        2.5934940359611445        1.6325844568102581      H 
 atom   5.7860814685312523        1.5482879746405367       0.50754588375839704      H 
 atom   4.7325662526856132       0.71465740035234404       0.75100148447937054      H 
