 # 24 angstroem -25959.3849930119
 lattice_vector   5.3842533338729375        0.0000000000000000        0.0000000000000000     
 lattice_vector  -1.2998708781593391        4.5257287552651091        0.0000000000000000     
 lattice_vector  -1.1391420400073050E-002 -0.71097988528888900        2.5106083637032923     
 atom  -1.1050592692658507        3.6576580528261409        1.8553880344355640      C 
 atom   4.4577382996057553        2.2900018246114069        1.7815257078937927      C 
 atom   4.3583978835292987      -0.50114017398886712        2.4280991316187732      C 
 atom  -1.0556485061320831        4.0060116503819172       0.88664501315904531      H 
 atom  0.29389770468460208        3.4054397135027976       0.43968589997462432      H 
 atom   4.2966980104026771        2.4556089263843681       0.13447101733366959      H 
 atom  0.99805051927730348      -0.43066446490058624        2.3594963992894522      H 
 atom   2.4622795261949615        3.5312492949669196       0.21775872645982533      C 
 atom   2.3813372130673356       0.96717759065900766       0.86622268749195841      S 
 atom  0.56366057919085488        1.9349547289700122        1.1582651557267449      S 
 atom   1.6420841086065399        3.6433293918074003       0.82487180137373628      H 
 atom   1.2008973467160193        1.8562805610376878        2.4027649386765741      H 
 atom   3.7902767607566026       0.10333372801425227        1.7863998024282832      H 
 atom  0.27296959137208354       0.66574323080019171        1.4484088777355717      H 
 atom  0.99330932147598749        3.2552640265829966        1.8471799885901781      H 
 atom   2.3508498694000348        2.3673522409149892        1.7863330608960630      H 
 atom   3.1240599858865958        2.9716521087888865       0.75323255943926137      H 
 atom   1.6443186575445987       0.65975176353721598        2.1153632682274242      H 
 atom  -1.5155305337931755E-002  0.80684842547423374        2.5308950693564087      H 
 atom   4.4770031761878313       0.69875484295316814       0.82949437346479549      H 
 atom   3.0022056250420475        1.0617936364173737        2.3936229240298008      H 
 atom   3.7553980908360045        1.8312719570444231        1.1490097761092495      H 
 atom  0.36564446463135258        4.1086580387517397       0.77978278411916702      H 
 atom   2.4577585532536408      -0.50894040279899999        1.9975286088747826      H 
