 # 20 angstroem -4306.14347794099
 lattice_vector   2.4873016644230033        0.0000000000000000        0.0000000000000000     
 lattice_vector  -1.3850263619164345E-003   2.8317843692137594        0.0000000000000000     
 lattice_vector  -9.1584111596546853E-003   8.0165585110920451E-002   6.0535640559315675     
 atom   1.3633324133041098        2.7161975812368655        1.0136935804102709      H 
 atom   1.4516587579577689        1.0147336991969154        3.9481268149084645      H 
 atom   1.3122201207309339        2.6623578869790960        5.0310934614628389      H 
 atom   1.3855380055746802        2.3048091903873367        3.7459394643544117      H 
 atom   1.3093888807227620        1.2181771289168426        1.1837299741346372      H 
 atom   1.0585218260525482        1.1304867817986473        5.8605032081297637      H 
 atom   3.0737255090719923E-002   2.2728536737517753        6.0061473260731590      H 
 atom   2.4836290216905232        1.9103214248198490        4.3569895197502779      H 
 atom  0.18776911649609471        1.4614424424599661        3.2700526211062066      H 
 atom   2.4177956418662157       0.67742632116655854        4.7615793416760583      H 
 atom   1.4047310127029298        1.9785789245903791        2.2071592338620531      H 
 atom   2.4834098755959246        2.1527211618538078        1.3298974315088619      H 
 atom   1.2641627794548160        1.2624623709800389        4.5770650128289185      H 
 atom   1.3716481582568050        2.5156698852473545       0.34675115873633305      H 
 atom   1.7518979886187915        1.2406286538965416        5.7786499430795022      H 
 atom   2.4382709093249244       0.59123665089928745       0.59938202720782552      H 
 atom  0.30664700501660647        1.1723098282718076        1.3813243165456497      C 
 atom  0.15456737767582240       0.62876444421344158        2.6535009545560877      C 
 atom   1.3974310338158535        2.7722843911836925        2.8437313495462111      C 
 atom  0.29657884635555942        2.5964389069146669        5.0629589659260974      C 
