 # 20 angstroem -4304.223283219
 lattice_vector   2.5031061682839519        0.0000000000000000        0.0000000000000000     
 lattice_vector  -1.8175020846836636E-002   2.8249139689606713        0.0000000000000000     
 lattice_vector   1.1456650035623444       -1.3124422041758230        6.0049191421223780     
 atom   2.7806408149904365      -0.86206757026207981        5.7806894990665088      H 
 atom   3.0537326136213876      -0.16897516782313357        3.7161201116480722      H 
 atom   2.1513219781328954        1.9645141337509289        1.2114655845148330      H 
 atom   1.8058220790111152      -0.13887769988994278        4.7213768222324370      H 
 atom  0.46952199345271023      -0.18564428167537383       0.68477331258967544      H 
 atom   2.9738615322899999       0.31471017400734486        5.2439957139945559      H 
 atom   1.6938370220907908        1.3822432350717855        5.2141846455311542      H 
 atom   1.8357265611040825       0.17201963788995514        4.0907688104112223      H 
 atom  0.58289957177074714      -0.15460052794296936        2.2982175139967209      H 
 atom  0.50518209797766955       0.85769136135702528       0.37578049210829034      H 
 atom  0.63215505206492706        1.3364423380579029        1.6455840875539887      H 
 atom   1.9024684107263761        2.1967619087312387        2.5170995213503851      H 
 atom   1.8140944177376888        6.8740833036897486E-002   5.8902792404785878      H 
 atom   1.9761490104426329        1.5121195023307221       0.66654421605133729      H 
 atom   1.0556015950249091        2.2510010404452592       0.54141909314359393      H 
 atom   1.9305914383469720       0.32285119933464046        1.3250026627554694      H 
 atom   1.2513220053138703       0.58955962864917266        2.0516872994927455      C 
 atom   1.7971390076331972        1.3260951545104320        3.0954397979627486      C 
 atom   3.0557834767720089        1.6196310046964959        3.7543875352458422      C 
 atom   3.1852103023975062        1.3081002120598728        5.0855292881602692      C 
