 # 12 angstroem -4211.46796735338
 lattice_vector   2.5873372319647783        0.0000000000000000        0.0000000000000000     
 lattice_vector  -1.0558378101957866        2.0854646771472654        0.0000000000000000     
 lattice_vector  -9.9670824939008251E-002  -5.1179119364772027E-002   5.5628812295700678     
 atom   1.1715959843977328        1.4646089934389503        4.6719085610988689      H 
 atom   1.1186070844834373       0.12881404075279729        1.6393294708498858      H 
 atom   1.4667413187873428       0.30429020113160321        2.7283195996242480      H 
 atom  0.25814266622791704        1.0030272117996455        5.2593720039907232      H 
 atom   1.2213637246977138        1.4899964404186652        1.8903004672147186      H 
 atom  0.30845569231085695        1.0278539076679085        2.4779415774888043      H 
 atom   1.0688620536940685       0.10335104004421784        4.4207249374423192      H 
 atom   1.4163088412326381       0.27944623764194498        5.5099893665885737      H 
 atom -0.32238988185857465       0.70938852312040768        3.2081792577325698      C 
 atom -0.78594079071801304        1.7845788382096976        3.9414103131315232      C 
 atom -0.27246625913890576       0.73477636310629113       0.42661835110176621      C 
 atom -0.73611189848126046        1.8100384485696286        1.1599134643824793      C 
