 # 12 angstroem -4211.45086767613
 lattice_vector   2.7824791349663216        0.0000000000000000        0.0000000000000000     
 lattice_vector  -9.7013079646064318E-006   2.3368265507175048        0.0000000000000000     
 lattice_vector  -9.2146963063536744E-002   1.4539064006213864E-004   4.6173618745320857     
 atom   1.5802544880233147        1.7757440821775015        4.4457691730386255      H 
 atom   1.9082311650234580       0.60750356539211359       0.54024209463220862      H 
 atom  0.78119639794787510        1.7759903394528651        2.4355075189468014      H 
 atom   1.6264216812193446       0.60748770157897747        2.1372982309616915      H 
 atom   1.8624660395839439        1.7758234915054105        2.8488757097128143      H 
 atom  0.82706793419036906       0.60742834745025398       0.12688970818015485      H 
 atom   1.0626131487608343        1.7757015670707019       0.83852739823658351      H 
 atom   1.0165767005933359       0.60761925617421730        3.1471275223936850      H 
 atom  0.27356325541205445       0.60746945303152389        3.8398838037264325      C 
 atom   2.3235883289320274        1.7759618155875634        3.7533796182635739      C 
 atom   2.3695229509715796       0.60737325790459029        1.4446524822096591      C 
 atom  0.31945824939615530        1.7758391779118454        1.5311168478948967      C 
