 # 12 angstroem -4211.30333792007
 lattice_vector   3.6853201354182006        0.0000000000000000        0.0000000000000000     
 lattice_vector -0.95633564105918545        2.4207981324434149        0.0000000000000000     
 lattice_vector  0.93077391631980433      -0.88940161345332003        3.3770856933525302     
 atom  0.62584572244144221        1.8218247945968535        2.1969258302148438      H 
 atom   1.5557489668756894        1.2366766499059272       0.30020590199482822      H 
 atom   3.2354213161881167       0.87127324222191693        2.1963054864573177      H 
 atom   2.6328125984727766        2.1857100601947370       0.30449500287160020      H 
 atom   1.4895843994536442       -6.8133152200698308E-002  0.87160009912026082      H 
 atom   2.6475841188791351       0.89283300798068455       0.95823631186949210      H 
 atom  0.49017112078012909      -0.25744778761756704        1.5426665585172676      H 
 atom   1.6457260964662064       0.70531916138900030        1.6248387851249229      H 
 atom   3.5410873680969583       -8.6922021983894524E-002   2.3311473113204775      C 
 atom   1.5457490497884714        1.4215109235762420        2.3383022290987974      C 
 atom  0.63496909772370647        1.6353730695038431       0.15929183733185429      C 
 atom   3.2817164605412450       0.72240419866675387       0.16937208272244045      C 
