 # 12 angstroem -4211.61047096424
 lattice_vector   3.6836235005369824        0.0000000000000000        0.0000000000000000     
 lattice_vector -0.95767096270271868        2.4389374273955315        0.0000000000000000     
 lattice_vector   1.3040559783557115       -6.1278296885185810E-002   3.3432562655643823     
 atom   2.9739315487964819        1.4927637661696374       0.87353563968660164      H 
 atom   1.3896357195686440        7.1875884469604370E-002  0.92497755596182463      H 
 atom   3.4016615766092144        1.9570528916243073        2.4200453637835855      H 
 atom   1.2841385661894338        2.0458401795593715        3.0198894606474735      H 
 atom   3.3737431515557099       0.60051181523541974        3.0365730580395667      H 
 atom  0.27615684918969730       0.41050832970780682       0.25840719520729649      H 
 atom   2.2596759782482225       0.93869790530184805        2.3689430222100749      H 
 atom   1.4071725114993821        1.4045774345649249       0.27305897920072902      H 
 atom   1.3480813430861449        1.3898355416761332        2.2448920286696938      C 
 atom   4.0082306580628497       0.46218600880284549        2.2448171005495703      C 
 atom   3.3243852354998347       0.54863527595555017        1.0495838070445775      C 
 atom   1.3436184572036536        2.0596171116120692        1.0487935768607608      C 
