 # 12 angstroem -4211.91204110127
 lattice_vector   2.6727560642292238        0.0000000000000000        0.0000000000000000     
 lattice_vector  -1.2977956224461968        2.3369603646638497        0.0000000000000000     
 lattice_vector  -4.1198141823752514E-004  -1.9173205480294258E-004   4.7439672469063447     
 atom   1.3434725004018442       0.75046403815447704        4.4118594644911342      H 
 atom  0.40784768609275224       0.54807149245933906       0.85367941523805346      H 
 atom  -1.2479090830908386        2.2762346867521859        2.0397857138699562      H 
 atom  -1.2480922380281501        2.2761424797059231        4.4118008528218233      H 
 atom  0.40781525269432412       0.54804628988900539        3.2258102638175323      H 
 atom   1.3436104043636510       0.75053788754173256        2.0396308459133734      H 
 atom   1.7021249204096913        1.3596382685865325       0.85397972598719241      H 
 atom   1.7019485600168955        1.3594321266311400        3.2260889987902845      H 
 atom  0.41414049006883830        2.1358045114530855        2.0401805319380331      C 
 atom   3.9944821975870237E-002   1.4999767193565909        3.2260315779561117      C 
 atom  0.41397181314410647        2.1357254205372214        4.4120518224485625      C 
 atom   4.0127208508905610E-002   1.5000477323096342       0.85415969149520876      C 
