 # 12 angstroem -4211.47761820626
 lattice_vector   2.5770691187963646        0.0000000000000000        0.0000000000000000     
 lattice_vector  -1.0725484377628201        2.0926294733558795        0.0000000000000000     
 lattice_vector   6.7757157862244257E-004  -3.3910817316894871E-004   5.5472749372001768     
 atom  0.73956723218061815       0.74916425778267004        3.9359785628088861      H 
 atom   1.0474934475517501       0.90662862084015250        5.0463391287162835      H 
 atom   1.3496760996062336        1.0622590411685302        2.0054814471797453      H 
 atom   1.8863722712814002        1.5545000136231731E-002   4.2037615531341714      H 
 atom  0.51031457852300577        1.9532939227588577        1.1624384384956574      H 
 atom  0.20313655263334915        1.7956739013971568        2.2730612620229271      H 
 atom  -9.9320091801368429E-002   1.6398093162957446        4.7790281973778521      H 
 atom  0.43617647381464181       0.59408541328626485        1.4300800695388149      H 
 atom -0.60379320563429462        1.3816770654934938        2.7389948695286117      C 
 atom  -6.7523588034644130E-002  0.33540774905392928        3.4701103692830291      C 
 atom   1.8542739970025039        1.3204737642600552        5.5126792412864818      C 
 atom   2.3898697453427253       0.27446582455098356       0.69645083000110375      C 
