 # 12 angstroem -4211.11170760509
 lattice_vector   2.3268458617776249        0.0000000000000000        0.0000000000000000     
 lattice_vector  -6.4272716498825884E-005   2.7855905380667387        0.0000000000000000     
 lattice_vector  -1.1621735414252941        1.0864375353822469        4.5794986197228287     
 atom  0.41384911237856903        1.9594304905006696        1.0517641714699486      H 
 atom  0.76121095890059243        2.8878761799735124        3.2019449305548662      H 
 atom -0.74492347669426118        2.5853097937012937        4.1497213051534425      H 
 atom   6.9349413909068444E-002   2.9014060713134464        3.1897372473183747      H 
 atom -0.75171303602794592        1.2392333670267155        3.1737607420598533      H 
 atom   1.5784894270311574        1.8244154655530118       0.22426802239541074      H 
 atom  0.41314760857537958        1.7390624479572423        2.6616904932942003      H 
 atom   1.5764723178987909        2.4871172742236176        2.1867060416102997      H 
 atom -0.74760834980549640        1.5645165705486872        4.1442455226296406      C 
 atom   1.5780412562791359        6.2858304061591125E-002  0.21480421914559120      C 
 atom  0.41444001792623153        1.2438034817625330        1.7625735423769586      C 
 atom   1.5778182617811503       0.51258454738727188        1.5534663016289552      C 
