 # 12 angstroem -4211.59648171729
 lattice_vector   2.6660575353107876        0.0000000000000000        0.0000000000000000     
 lattice_vector   1.4535162476707812E-006   2.3763358674150958        0.0000000000000000     
 lattice_vector   2.4812422555512911E-004   1.7922890283682703E-004   4.6946172443116945     
 atom   1.1257841193330784        1.5865532418739572       0.41988638125575822      H 
 atom   2.4608269524070838        1.5865558469373031        4.2488642241217933      H 
 atom  0.88724619925340398        1.5870064565775071        1.9015306861870713      H 
 atom   2.4589799300556150       0.39838632922730227        3.5859263744115668      H 
 atom   2.2201834057414800       0.39808927301775143        2.1042427858866422      H 
 atom   2.2221642376835411        1.5864856793066238        2.7671695231829307      H 
 atom   1.1278081756171816       0.39846402432321737        4.4515612856534066      H 
 atom  0.88898299979051698       0.39877123203395481        1.2386599841633095      H 
 atom   1.2050608000563108        1.5864533913386294        2.8678202367523449      C 
 atom  0.81001365996858365       0.39832906961298248        3.4853338906188607      C 
 atom   2.1428909041109105        1.5864657146927708       0.52050617695195056      C 
 atom   2.5379521550026314       0.39829028071550587        1.1380133061785755      C 
