 # 12 angstroem -4211.61544806217
 lattice_vector   2.3598141169935323        0.0000000000000000        0.0000000000000000     
 lattice_vector  -1.8994309249546212E-004   2.7462384686971602        0.0000000000000000     
 lattice_vector  -1.1793198401481551       -1.3734047197864119        4.6125890784083898     
 atom   1.1429627292883118        1.8354452514574526       0.78782641587029356      H 
 atom   1.1423980342495030       0.46216417468111570        1.5252123630470011      H 
 atom   1.1429998163291410      -0.33038557097143667        3.7841198566559879      H 
 atom  -3.7310457057679644E-002  0.57055247196295422        3.7843259215750593      H 
 atom   1.1427151652949641       0.57101666636653448        3.1417731932886301      H 
 atom  -3.7467368400231883E-002   1.1515270327236429       0.78804865244887778      H 
 atom  -3.7259183058696257E-002 -0.22145090726964525        1.5253646838059063      H 
 atom  -3.6621290854095878E-002 -0.33044872419623211        3.1415466240976211      H 
 atom   2.3225192417445579       0.48700526977358977        1.7337279796777134E-002 C 
 atom   1.1423533707343474        2.5001514818460229        1.7442270783373091E-002 C 
 atom  -3.6804368038474457E-002   1.8598650347610559        2.2956545764466436      C 
 atom   1.1431462638732626        1.1267966978473607        2.2957971416740741      C 
