 # 12 angstroem -4211.0695259679
 lattice_vector   2.5270611286187745        0.0000000000000000        0.0000000000000000     
 lattice_vector  -1.2290305442391776E-004   2.5271740434915202        0.0000000000000000     
 lattice_vector  -1.2636679144715186       -1.2635769378658714        4.5878657638118110     
 atom   1.2236902132005021        2.1140473586840964       0.90171037965342404      H 
 atom   1.5941249513981259       0.57560669008391552        1.5861159631261115      H 
 atom  0.33079040954144795       -4.2052078823448726E-002   3.1953438387908664      H 
 atom   1.4981563753375222       0.57579614170045634        3.1955813020145718      H 
 atom  -4.0748128070863567E-002  0.94657346025603961        3.8802474406521816      H 
 atom  0.60522388521899173       0.94644612441801579       0.90177235392234245      H 
 atom  0.23470755760165135       -4.2209058384238080E-002   1.5859080454729835      H 
 atom -0.65776202574660225      -0.41282800999964891        3.8800441558551335      H 
 atom  -1.4284023283598787E-002  0.89851793972022620        9.6693462727782592E-002 C 
 atom   1.8433489851390530        2.1620281947541442        9.6749538408490598E-002 C 
 atom  0.28263108822969840        1.8650371897761966        2.3907210661482616      C 
 atom   1.5462084435038979        1.1956589374272788        2.3908188651843676      C 
