 # 12 angstroem -4211.75915473833
 lattice_vector   3.6565320857712753        0.0000000000000000        0.0000000000000000     
 lattice_vector  0.90062275749304033        2.4584774695044809        0.0000000000000000     
 lattice_vector -0.94436659875130702      -0.96116646783375770        3.3289213636466983     
 atom  0.24621558456401227       0.64610887858208588        3.0103684252975498      H 
 atom   3.5540726258391619        1.5005241170385695       0.89588449708442341      H 
 atom  0.32235835234483945       0.65976450980614987       0.25262276511593296      H 
 atom   1.7628092240493110       0.55832372208065539       0.30295771654586945      H 
 atom   1.1439718202956772       0.58347329117259827        1.5257122013819309      H 
 atom   2.1137357669004611        1.6020839645207503       0.84571465837380067      H 
 atom   1.7881415928233575       0.61564457484174451        2.9517295266818779      H 
 atom   2.6857415199725825       0.55308129019094399        1.4670362719258452      H 
 atom  0.78583861896080653      -0.36958471047912972        1.6413602670748075      C 
 atom   3.0626792840126709      -0.38226211119996784        1.6361010581872009      C 
 atom   3.5257954463220833        1.5814534801822118        2.8413314473366689      C 
 atom   2.1460943499464724        1.5687677440410353        2.8361085648409134      C 
