 # 8 angstroem -47374.3592228459
 lattice_vector   3.9147465176502405        0.0000000000000000        0.0000000000000000     
 lattice_vector  -1.3946618405028255        5.6338054574309657        0.0000000000000000     
 lattice_vector   3.0773903910721919E-005   1.7224787972715976E-004   2.1662222127099793     
 atom -0.17722167477207276        1.4158405330435626        4.0407000255289094E-002 C 
 atom   1.1114914097847659        3.5363842692789862        4.0527905486449405E-002 S 
 atom   2.3438394889268559        5.4013207189329551        4.0806417434909377E-002 S 
 atom   3.0694719120680460        1.8881738491408346        1.1234543442542591      C 
 atom   1.1121121500338875        1.8882263526635643        4.0368629782521918E-002 C 
 atom  0.38635925623889456        5.4014143125552181        1.1236542415450128      S 
 atom   1.7801348724225647        1.4158030325376911        1.1234911790213200      C 
 atom -0.84598280987975216        3.5364659536768555        1.1233721256510145      S 
