 # 8 angstroem -47374.4930179563
 lattice_vector   3.8813970344802300        0.0000000000000000        0.0000000000000000     
 lattice_vector   1.9027425136955936        5.7622601854661877        0.0000000000000000     
 lattice_vector  -8.0168768638617355E-002  0.40710796980893138        2.1388900404829534     
 atom   1.9747345969744041       0.60274106889732570       0.72021748967430632      C 
 atom   1.9813424172514693        2.2275308293850964       0.42164421570540911      S 
 atom   5.1533525162287654        4.2704563629883552        1.0928613655084671      S 
 atom   3.1793881415123932        6.0990996804027526        1.8640380330717325      C 
 atom   5.1602861518065435        5.8952525431353262       0.79430100902376399      C 
 atom   3.2528437628127844        4.0671207724695639        2.3672923093572121E-002 S 
 atom   3.8751912018170986       0.80607597945589182        1.7893733154284568      C 
 atom   3.8818848652546349        2.4308362947520168        1.4902431647845324      S 
