 # 8 angstroem -47374.3674246793
 lattice_vector   3.9142764346624639        0.0000000000000000        0.0000000000000000     
 lattice_vector -0.57939187716631879        5.7352332247672564        0.0000000000000000     
 lattice_vector  -3.3955157229579002E-005 -0.40934389284539702        2.1276325434822700     
 atom   1.3629924370996040        3.5219708109420758        1.2409686657173904      C 
 atom   1.3556131274563925        5.1408963055731380        1.5521690951802909      S 
 atom   2.6600821829417174        1.4394963223898682       0.84071513343640247      S 
 atom  0.69489249036969980        3.2631656232523567        8.7926275929858216E-002 C 
 atom   2.6520791418127239        3.0583421677106646        1.1517523732623214      C 
 atom   3.3127436343855083        5.3454244627198388       0.48856351906355272      S 
 atom   3.3201156199343203        3.7265856034479281       0.17709246565273590      C 
 atom  0.70290167444597051        1.2348806291499395        1.9044652666931114      S 
