 # 8 angstroem -47374.5008390074
 lattice_vector   3.9066848629402218        0.0000000000000000        0.0000000000000000     
 lattice_vector  -1.1045012218724913E-002   5.6403964028896283        0.0000000000000000     
 lattice_vector   4.8998604034332892E-004   3.2234870521675194E-004   2.1739183672769125     
 atom   2.1894415698463927        4.0660730203581661       0.97406729946458925      C 
 atom   2.2063134634075703        7.6421704969896045E-002  0.97293071392386565      S 
 atom   1.5169438807804085        1.9425810871775204        2.0611702940714682      S 
 atom   1.5243356117963109        3.5933516181919671        2.0610646941223250      C 
 atom   3.4774315051433451        3.5931065083952305       0.97423166971272668      C 
 atom  0.25332738345900468        7.6423986303686936E-002   2.0600685636396650      S 
 atom  0.23634396060756571        4.0663147355429521        2.0609072526349039      C 
 atom   3.4699317816286555        1.9425764919523241       0.97405908240985706      S 
