 # 8 angstroem -47373.4534849604
 lattice_vector   4.2413420268079172        0.0000000000000000        0.0000000000000000     
 lattice_vector  -1.9725037065182534        5.3332549043220920        0.0000000000000000     
 lattice_vector -0.52494010734961072      -0.18529053057790634        2.1024292877624848     
 atom   1.0575403287372762        4.5037816825590564       0.74035064319366184      C 
 atom   2.1600784271732811       0.59456239161751379       0.61118326863269001      S 
 atom -0.20590272568252344        1.4997324030895667       0.18591676127920648      S 
 atom  0.40231909231563434        3.7141733989268855        1.6293855175477263      C 
 atom  -1.0761586729098196        2.9237395911527382        5.7905710487550277E-002 C 
 atom  -1.6777809338087519        5.0023179018398993        1.1914591371964323      S 
 atom -0.94567390893082137        3.5279190607695305        1.2713464604008615      C 
 atom   1.1341066026273998        2.2396381133304351        1.7100883342200697      S 
