 # 8 angstroem -47373.3521249385
 lattice_vector   3.8882389503922759        0.0000000000000000        0.0000000000000000     
 lattice_vector   1.9431134777589034        5.9226335811248356        0.0000000000000000     
 lattice_vector  -1.0568033357930474E-004  0.37323350853193793        2.0697878507053362     
 atom  0.23660881831520514       0.58152286628252137        1.2597288080780784      C 
 atom   3.8219047783600000        2.2116572749216830       0.96576799413636449      S 
 atom   1.9027657690785158        4.1180138784528211       0.62115911503053667      S 
 atom   5.4884674220126346        5.7481905426471469       0.32753568016302725      C 
 atom   1.6010204569771926       0.58118554015488599        1.2596346110131367      C 
 atom   3.8212958235761660        4.1183144655863426       0.62102699742629619      S 
 atom   4.1240967806242823        5.7482279081174452       0.32737304597577321      C 
 atom   1.9033374141724513        2.2111346042244442       0.96548226135833071      S 
