 # 24 angstroem -18205.3355494135
 lattice_vector   7.4578227673292323        0.0000000000000000        0.0000000000000000     
 lattice_vector  0.24959698609818659        2.5732775140999782        0.0000000000000000     
 lattice_vector  0.52561298766299991       -1.0980100780319344        3.2855744404490199     
 atom   6.2318352939551813        2.1839069985500328        1.1095215008565447      H 
 atom   4.7301983116149815        1.8129739414032471       0.12383379590291195      H 
 atom   5.1830868609692100       0.55927583300232064       0.62614945081448692      H 
 atom   6.1693723044456092        1.0921773697690020        6.3609901738595764E-002 H 
 atom   6.3252805080081265       0.71394524075337817        2.1531242457443414      H 
 atom   2.6337890395435575       0.73120035789619575        2.0313095005201083      H 
 atom  0.47279977836545961        2.2731403409628337       0.78934705624577661      H 
 atom   3.2975547748567253        1.5779512813987095        2.2538793137267553E-002 H 
 atom   4.6488434205176157       0.90538017258493453        1.4480282644183569      C 
 atom   3.4461659986713307      -0.19426730231484457        1.5628817818531173      S 
 atom   3.4593350689253799      -0.51468160074624025        3.2322338221107199      C 
 atom   5.4796277722085875        1.1326396114093620        2.4984286819493673      C 
 atom   7.2650541815245795       0.87208810399256131        1.1908668865748091      H 
 atom   5.3470293574138354      -0.41978331163735949        2.5911895803697576      H 
 atom   1.6681372824418359        1.9340357944502715        1.7672470382676719      H 
 atom   1.3448050092068369       0.81853598115480630        1.2064381273296516      H 
 atom   1.7711286207689125        1.9783419847301063       0.35843947283771654      H 
 atom   7.3716855238132029        1.0694960420531636        3.0545284908730022      H 
 atom   1.2500700511593361       0.76586988667199207        2.5206798600667799      H 
 atom   2.6673615152241990        1.6491472874931385        1.3110876139470091      H 
 atom   1.1580216426495711      -0.23702275214399413        2.6731796006814963      C 
 atom   7.2764362685388919      -0.56916462103440923        2.7153243723230207      C 
 atom   7.1911270602670188        1.8816776880974129        1.3784393653493583      C 
 atom   1.5847259758871128       0.43816348173233477       0.27561711100642172      C 
