 # 32 angstroem -8518.75488779717
 lattice_vector   3.5805241561990484        0.0000000000000000        0.0000000000000000     
 lattice_vector   2.3211415662729974E-002   4.7387119337463153        0.0000000000000000     
 lattice_vector  -1.3356349349443053E-002  -1.9948864168500695        4.3038941268390483     
 atom   2.8259219220179146       0.52981940102758185        3.7614513880359746      H 
 atom   3.3257957200033172        3.7007412008870690       0.66178899058137697      H 
 atom  0.10279127809080103        1.7405504329650836        1.9313428116002862      H 
 atom  0.63347795403286722        3.2112495923174178        2.0522448213541904      C 
 atom   1.0462386418292222      -0.61385561560766266        1.9256419949225501      H 
 atom   1.1020009517109079        2.7022778527285389        2.8175924252109024      H 
 atom  0.15299496452038555       0.32308895425832063        2.8569337447132259      H 
 atom   2.8884837998865489        3.3725418249273531        2.3708994005444524      C 
 atom   3.4232308359243451       -1.6016341112653265        4.0297321026127442      H 
 atom   2.4502553884597797        2.4677608739982406        2.5293528022422129      H 
 atom   1.5319532489331757        1.7353115423558552        1.9534846677440854      H 
 atom   2.4016798508775219        2.0036694050267578       0.21475865089157900      C 
 atom   5.6193711837801405E-002  0.21176010146041524        1.2513266329214869      H 
 atom   2.6978932949624359      -0.77646102999347044        3.1975272373103518      H 
 atom   1.8879408680189389        1.5798776754053878        3.4220695504361576      H 
 atom   1.0595100067366321      -0.20478946473434559        4.2380147271800093      C 
 atom  0.92669672758253274      -0.79521297835122851        3.3991825480371722      H 
 atom   2.8442186824633615        1.1027827163164399       0.40828480705549586      H 
 atom  0.76410852559321452        2.6987284297388681        1.1637885908221650      H 
 atom   3.3207014403829263       0.79508524393503133        2.0377906314270011      C 
 atom   2.5749148891446478        2.5100577213379940        1.0920439308989729      H 
 atom  0.63502240330477067        1.2915212580780913       0.70970383243635249      H 
 atom   1.5772860640799831       0.30905503224082936        2.8548552768123661      H 
 atom   1.9432956267583128       0.80701452266103957        2.0337649581035184      C 
 atom   3.4072846973803381        1.7184108151821305        3.3256830173613596      H 
 atom   1.6187334513769855       0.33391709340215220        1.1813927580906938      H 
 atom   2.4446841703109912        3.9315540235708104        1.6277064516267576      H 
 atom   1.5399013175870315        2.1508292783957930        4.1942181995658521      C 
 atom   1.9523349313955463       -1.6722677811760611        4.1021218308562561      H 
 atom   1.8556508704427979        3.6135165710723931       0.69680174116318760      H 
 atom  0.59751991279522332       0.69671898596376491        4.0972922853056808      H 
 atom  0.16364470006804469        2.1755680992393840        4.1747199854491592      C 
