 # 32 angstroem -8519.42632047277
 lattice_vector   3.5720299068359087        0.0000000000000000        0.0000000000000000     
 lattice_vector  -8.4897585241754496E-003   4.7424899093828090        0.0000000000000000     
 lattice_vector   3.8297736208017506E-003  -2.0214833323870205        4.3107973098190149     
 atom  -5.4652423261841998E-003  0.23379204058095712        2.7700315764547545      H 
 atom   3.4280619581859035       0.21260081060269179        1.3571867787951515      H 
 atom   3.2415996599133203        1.7131882089912445        3.4372672342234765      H 
 atom  0.41153468411210187        3.2899384617030454        2.3171557872224069      C 
 atom  0.53635026001201169        2.8009531845169340        1.4035796915210472      H 
 atom   2.2817406523277914      -0.69005877531488569        1.8428261096577958      H 
 atom  0.91185734108190386      -0.56194785296313621        2.1942759722056184      H 
 atom   2.6557195718295814        3.4880755137776935        2.6132452352451518      C 
 atom   3.1427566914553537       -1.7602719629356871        4.0078235080905147      H 
 atom   2.1841431964235758        2.6014758506449032        2.7713813496490181      H 
 atom   1.2804089346081702        1.8083937696329517        2.2002097979204520      H 
 atom   2.1937399784084568        2.0925621770196257       0.45533401924873612      C 
 atom   3.4718326764441367        1.6848970040099887        1.8476228640805619      H 
 atom   2.5130537713233947      -0.65637307870636374        3.4380040178690803      H 
 atom   2.6164244925694771       0.61512912477083914        4.0132841756263273      H 
 atom  0.87245264942968048        1.8958486381635005       0.16100632679828683      C 
 atom  0.72871218710562602      -0.72342432275755653        3.6470602039308768      H 
 atom   2.6886130757712592        1.2048082933432860       0.58092490252835471      H 
 atom  0.40241198569729464        2.7781728827527981        9.0961358051336507E-003 H 
 atom   3.0899352633742896        1.1173480661177988        2.6099560331906320      C 
 atom  0.82967717370440219        2.7505847103673884        3.0782393540503001      H 
 atom  0.49154589377667546        1.3286161125470544       0.91589320030266741      H 
 atom   1.3531558269877590       0.38071508403350512        3.0782820201243912      H 
 atom   1.7679936937414364       0.92048165094148326        2.3156244504730794      C 
 atom   3.0550667590810159        3.5740872138144000       0.58297758868923721      H 
 atom   1.6403490854155569       0.43126514363734086        1.4025823374593327      H 
 atom   2.3188917477016857        2.5835675227491612        1.3557105820967719      H 
 atom   1.3022903038886775        4.2667631438117972       0.16316082881954039      C 
 atom   1.7793164109153010       0.40135551620004989        7.9623342301480514E-003 H 
 atom   1.6834399680110363        3.6977834043981774       0.91670890478210365      H 
 atom   1.4578578194923750        1.6475184454450000        3.6495267279870744      H 
 atom   3.5467809653877111        4.4640340980568620       0.45867902122611648      C 
