 # 32 angstroem -8519.24851893333
 lattice_vector   3.5675055281834203        0.0000000000000000        0.0000000000000000     
 lattice_vector   1.7751018642832421        4.7731370728812994        0.0000000000000000     
 lattice_vector  -1.7636303389929360       -2.0500341302259328        4.3048849733203918     
 atom   1.0758204223469772       -1.4863706154560774        4.2159524404372366      H 
 atom   1.8895155898687372       0.76533582880484330        3.9155470595865807      H 
 atom   3.1913378223532374        2.0306004344094006        2.1040898935813748      H 
 atom -0.80311262595631006      -0.70377546104105271        3.7656508755984639      C 
 atom -0.30893985423342268       -1.5945859118915922        3.8719136091670854      H 
 atom   3.0674011331038447        3.3628543310366941        2.5991969555683259      H 
 atom -0.44279194437171931      -0.11398559209449731        3.0184839041732632      H 
 atom   1.4359073507090430      -0.89234533503408131        3.4719719736878463      C 
 atom   2.9199186380849609        1.9630357766297883       0.47111938327686581      H 
 atom   3.9237336151022775        4.2831682158133804       0.31005245524401204      H 
 atom  0.99155245709052575        1.7900313676563224        1.7616052034422052      H 
 atom   1.8647570358414289       0.31878545454711360        1.6121032436537079      C 
 atom   2.2252719251957709       0.91263406676603198       0.86864164490883455      H 
 atom  0.93552732981622577       -5.5293768245302695E-003   3.3707371023604265      H 
 atom   2.0137359737390819       0.82667882106476598        2.4902318391051530      H 
 atom  0.53554846248174315       0.13268256485245711        1.3191516623286845      C 
 atom   2.1630941757989852        4.3897176964149258       0.44631956159604036      H 
 atom   1.2645089925072337        3.2559804772598695        2.4680767651052729      H 
 atom   3.6058685228206522        1.0215301312196381        1.2173432107011215      H 
 atom   2.7554284145998769        2.5223882608647550        1.3228872262798874      C 
 atom   1.1109893851120762        1.8583920972891967       0.33563457630295929      H 
 atom   3.1876002376736658        3.4302195392245958        1.1688124720203978      H 
 atom   4.5554357308323752        3.1914690471021743       0.82826635706780982      H 
 atom   1.4238525372963076        2.6984980438373634        1.6080751423250499      C 
 atom   1.8843233602951714        2.1608728181962520        2.9792632911431824      H 
 atom  0.17619526271004354      -0.46172709887793095        2.0630759246840338      H 
 atom   2.3605092404592685      -0.57144606338791271        1.7147823274659668      H 
 atom   8.7835420797214195E-002   1.4991178393119851        3.4753979821944001      C 
 atom  0.51943674267038120        2.4073409131305996        3.3219412998597493      H 
 atom  0.52150416281896095        1.0080607562059627        4.2581169690348641      H 
 atom  0.25810571072503491       0.93726697204496168        2.6261936926608382      H 
 atom   2.3231422350411886        1.6724540201507643        3.7593177865888290      C 
