 # 12 angstroem -142.339709488742
 lattice_vector   1.7611275563807518        0.0000000000000000        0.0000000000000000     
 lattice_vector -0.27062046390835426        5.0455033679735015        0.0000000000000000     
 lattice_vector  0.62065078306401422      -0.30401002672704486        2.0317595637611197     
 atom   1.1648049346663409       0.97868758243447518        1.0676204882549161      H 
 atom   4.8900649070515403E-002   3.2356281843865360       0.87166072076955692      H 
 atom  0.29365745235520246        4.6561591928200405        1.7174848469326522      H 
 atom   1.3262876286353462        2.9770507296590574        1.6628242449367954      H 
 atom   1.7286219109897576       0.62818322987946873        1.6396475512900499      H 
 atom   1.9233253971589122        1.9637288432147095        1.7334633438195532      H 
 atom  0.77108087480777665        2.1870238937905278       0.89443665497515545      H 
 atom  0.49631913166926178       0.71001900151918429       0.44615590207798739      H 
 atom  0.97971770628718280        4.2756399989636540        1.1980887103111215      H 
 atom   1.9722453840834167E-002   3.6655509499479693       0.14686631457881164      H 
 atom  0.10164064460874662        1.9164549776914588       0.27723246014655062      H 
 atom  0.94203935569262964        4.7080829135424009       0.47499207826238538      H 
