 # 12 angstroem -143.303743376703
 lattice_vector   2.5762649588299995        0.0000000000000000        0.0000000000000000     
 lattice_vector  0.88599057138678716        2.7560598996509804        0.0000000000000000     
 lattice_vector   1.0913141447390098        1.1511329674198671        2.6458639229622571     
 atom   2.7917429681402410        2.0898834737079346        2.5415553603747716      H 
 atom   3.0618176221285975        1.4458522177533022        2.1991852589731811      H 
 atom   3.8296755987238580        3.1561423239350357        2.0984466574499789      H 
 atom   1.4281855721783487        1.6785689023313559        1.7092228738260307      H 
 atom   2.8411039719794173        1.2025782477818681       0.77536626233744066      H 
 atom  0.76056569017450171       0.74228757286519409       0.39631573560806121      H 
 atom   2.6890659462964757        2.8925856300635355        1.2185840497402318      H 
 atom   1.7912590601069143        1.9914079083604439        9.9826781584161275E-003 H 
 atom   1.3257018718930509        2.4811348672526248       0.38664492822100766      H 
 atom   2.9592153781812494        2.2485249744027080       0.87633538467127403      H 
 atom   1.8937885285571290        1.1887755532169324        1.3326953688263203      H 
 atom   1.7490046759872588        2.6957519473132447        1.7193590027656469      H 
