 # 12 angstroem -143.193130598676
 lattice_vector   2.9132340482074177        0.0000000000000000        0.0000000000000000     
 lattice_vector   1.1186459997491989        3.8053019187525781        0.0000000000000000     
 lattice_vector -0.43472795268209885       0.31440996532648163        1.6663405036265759     
 atom   3.0807169779808379        3.5625651408008445       0.82646727864862224      H 
 atom   3.2755903044184915        2.6935921333192923       0.79438748596677011      H 
 atom   2.6322990096642727       0.93931100142622836       0.55339074797433951      H 
 atom   2.5329591295520517        4.0657028652737273        1.3485286541813355      H 
 atom   1.1073656749654750        1.3209926642297738       0.23909404062648099      H 
 atom   2.6050348990298082        1.5113280154182696        1.0672296810013393      H 
 atom   1.8944387349229392        2.3105675562266264        1.1104365346207958      H 
 atom  0.43009305823321037       0.14054926189304823       0.51047295784491520      H 
 atom   1.1501554316312652        3.6850570587049973        1.6670422661161644      H 
 atom   1.2173388399507137        1.1298613252064491        1.3815883980699066      H 
 atom   1.8578180947776894        2.8856081797657431        1.6203816880861441      H 
 atom  0.90991676015413225        2.1904067690614450       0.27216232720615763      H 
