 # 12 angstroem -143.326263217645
 lattice_vector   2.6014169316767806        0.0000000000000000        0.0000000000000000     
 lattice_vector  -5.7464083481130162E-005   2.8014663492349277        0.0000000000000000     
 lattice_vector   5.9751315021698639E-005   1.4005474293237112        2.5721141360878574     
 atom   1.5325460078039481        1.6935718433635312        9.0336832381206253E-002 H 
 atom   1.7526936184012780        2.3476222306483678       0.94783829736334269      H 
 atom  0.23203209907027506        2.3475316472586139        1.8046301845053792      H 
 atom   1.5321984458961408        3.0942956575127734       0.94735807548372963      H 
 atom   1.7527961338792628       0.94692695647291880        9.0119333934164644E-002 H 
 atom  0.45233348697445735        3.0941155300453635        1.8050124445908464      H 
 atom   1.7530692074439276        3.7478373598491688        1.8049235633967791      H 
 atom  0.23166459150890586       0.94647481118630106       0.94745654311446181      H 
 atom  0.23172264284109431        2.3476437516960531        9.0203399689790104E-002 H 
 atom  0.45212503720902969        1.6931856148206561       0.94735517877582165      H 
 atom  0.45208423268635189       0.29294656689084764        8.9823105693100924E-002 H 
 atom   1.5325761258032096        1.6930000402886389        1.8051239930753296      H 
