 # 12 angstroem -143.444231669213
 lattice_vector   2.6111806725567481        0.0000000000000000        0.0000000000000000     
 lattice_vector   7.2641106801808542E-003   4.3584427051502468        0.0000000000000000     
 lattice_vector  -8.1832444954443931E-003  0.31432780097648616        1.6409747430892883     
 atom  0.55481521518350929        3.3295439387730252       0.19986857618632517      H 
 atom  0.60378011399621434        1.4748625672713749       0.59933264642248019      H 
 atom  0.56002598202929899        3.0134667412183833        1.0976417896245705      H 
 atom  0.58921680970546342        4.2661026626588221        3.3316906080353655E-002 H 
 atom   1.7508628879351387        3.8235165007395024        1.2911619452226473      H 
 atom   1.8928552259686864        2.6821677625168996       0.63258813539666980      H 
 atom  0.56868553211535655       0.53831030816214664       0.76597499089507970      H 
 atom   2.0044683503031622        4.0995726615270422       0.66897928374138516      H 
 atom  0.59013857257631652        2.1054171176910046        1.3425635622505849      H 
 atom   2.0109502555119394        1.2954646002597214        1.1489147429067881      H 
 atom   1.8765578674873695        2.1216891202394166       0.16669168014694427      H 
 atom   1.7646108073732567       0.70546787917080356       0.12998475005634308      H 
