 # 12 angstroem -143.258372596695
 lattice_vector   2.2437152458154479        0.0000000000000000        0.0000000000000000     
 lattice_vector  -1.4091278045908442        4.0562422548184278        0.0000000000000000     
 lattice_vector -0.81570929798169389       0.49575453765212257        2.0304082337994775     
 atom  -8.9404952747517169E-002   1.1595055930839870        1.7576831696447752      H 
 atom  0.49627775819398057        2.6040126668933397       0.99146192777104769      H 
 atom  0.57269283167844165        1.1274551141708706        1.2988635152499959      H 
 atom   1.1838141192716649       0.49048530307894006        1.0258855859558109      H 
 atom -0.57418534732942828        3.0568890258727848        5.6580904197592680E-002 H 
 atom -0.74885858402458172        3.6351964362071416        1.6160016480272585      H 
 atom -0.48628438035277227        1.5052657839653432       0.37354965600658080      H 
 atom   1.1489505927379267        2.1493817119851362       0.64395498903887016      H 
 atom  0.42521418657829474        4.0824153036689363       0.68099938160641127      H 
 atom -0.17435813565049077        2.8736928122801784        1.3981411203378009      H 
 atom -0.64047691089760972        1.9770747988440307        1.9446516831220855      H 
 atom  -1.1467521066551163        3.8232046632763019       0.27226951382889281      H 
