 # 12 angstroem -143.349172932638
 lattice_vector   3.0624193630747527        0.0000000000000000        0.0000000000000000     
 lattice_vector  -1.3019873399641815        2.5043979748488137        0.0000000000000000     
 lattice_vector   1.3712089545521464      -0.87760851490315406        2.4442844530279841     
 atom  0.23668728254290691        1.0663558476720865       0.11347387254333832      H 
 atom   1.0840250326111831       0.53935745556997639        1.6896290762661241      H 
 atom  0.56109433636831174       0.35979822957704133        4.9334741914916110E-002 H 
 atom   2.4270812222616929        1.2962355763695701        2.1642470590935008      H 
 atom  0.21243058491994066        1.7375815574533438       0.94156912053599373      H 
 atom  0.74449936897145297        1.2388782033497434        1.7272408107228081      H 
 atom   1.5920444776116178        1.6795785657999387       0.50529541747077367      H 
 atom   2.7750540058792468       -7.9163233378754624E-002   1.2730815233837174      H 
 atom   3.3122823934648609      -0.55453788294240114        2.0637961087592740      H 
 atom   1.9262101830554244       0.97748398024657190       0.46543627436750429      H 
 atom   1.0929947604699546      -0.11592613803886111       0.84359336195475043      H 
 atom   2.4551748184384747       0.62986949771413403        1.3322690143816511      H 
