 # 12 angstroem -143.45114587462
 lattice_vector   2.6107198983690707        0.0000000000000000        0.0000000000000000     
 lattice_vector   7.2381532646216560E-003   4.3601034156143825        0.0000000000000000     
 lattice_vector  -7.7092000473377711E-003  0.31440879954008749        1.6409328295096570     
 atom  0.55528577415851121        3.3313727270802280       0.20034362227608304      H 
 atom  0.60293098254466548        1.4747987645277476       0.59864506406964602      H 
 atom  0.56052420183351626        3.0140958023742939        1.0966989700751071      H 
 atom  0.58890972953456355        4.2676402834497136        3.2878109352499678E-002 H 
 atom   1.7535648678857738        3.8228129334336813        1.2922150579007408      H 
 atom   1.8935380592724509        2.6832995159663366       0.63267869025009671      H 
 atom  0.56922066037755870       0.53867688724233609       0.76634590512917178      H 
 atom   2.0020391295812101        4.1023598037664355       0.66941591544957368      H 
 atom  0.58980863323953314        2.1062032386909166        1.3436610479118625      H 
 atom   2.0073880781058615        1.2977223907534148        1.1479615409685291      H 
 atom   1.8753581590502491        2.1229635501208808       0.16678732963796683      H 
 atom   1.7672351266909387       0.70354688193166215       0.12964621558703776      H 
