 # 12 angstroem -143.454915880955
 lattice_vector   1.6580959027758175        0.0000000000000000        0.0000000000000000     
 lattice_vector  0.82875188308202663        3.8993332096273110        0.0000000000000000     
 lattice_vector -0.82805854736931117       -1.1457019981417114        2.8863508408004823     
 atom  0.67899444465927250      -0.14896514813942324        1.5580345394082544      H 
 atom   2.3326549777642480        3.6749015603585322       0.11462312804807893      H 
 atom   1.5057065795736801        2.3748485279061957       0.11463263582966636      H 
 atom  0.67702212541332918        2.4154950924925247       0.77367002418674291      H 
 atom  0.67706355683009189        1.1913387215527051        2.2170883677459923      H 
 atom   1.5055628948322659        1.1510675021224352        1.5580619863550840      H 
 atom   1.5075715451889764        2.4913817666746279        2.2171040655145253      H 
 atom  0.67753141249465765        2.4508355063247955        1.5576647462240316      H 
 atom   1.5059821469524715        1.1159749372675569       0.77403280068014202      H 
 atom  0.67585506497152947        1.0752348950975743       0.11470266146811893      H 
 atom  0.67509769412291476      -0.18405296770745735       0.77405428401935406      H 
 atom -0.14977953695541940      -0.10843793098318294        2.2171834748941621      H 
