 # 12 angstroem -143.473748710001
 lattice_vector   1.6510711995723573        0.0000000000000000        0.0000000000000000     
 lattice_vector -0.82511913356489952        4.3485799311655580        0.0000000000000000     
 lattice_vector   2.0193399619080927E-004   3.1832917181783169E-005   2.5809651752378029     
 atom  -6.3079427893122805E-002   3.7506613058151363        1.2321060607231979      H 
 atom  0.76265170288633977        3.7505369298893378        2.2666559178383205      H 
 atom  0.76199897720703147       0.10457352035276229        2.5227729703917916      H 
 atom  -6.3525293565026938E-002   2.3012461704851095        2.2667204360948614      H 
 atom  0.76203047659975220        3.0037865151888794        2.5227782913852952      H 
 atom  -6.3415256537297418E-002  0.85175812996847777        1.2316363992448338      H 
 atom  -6.3545473190773083E-002   3.0035951151083680       0.97641295327156208      H 
 atom  -6.2884288636168892E-002   1.5542145667855973        2.5225420068011486      H 
 atom   1.5872093070175415       0.10441562919890873       0.97638068643095677      H 
 atom  0.76233004871381560        1.5542145974979575       0.97595411823454292      H 
 atom  0.76227835497486729       0.85141702903591443        2.2667159196862543      H 
 atom  0.76163199049086139        2.3012950958428871        1.2319862245111126      H 
