 # 12 angstroem -143.233333700436
 lattice_vector   1.7942290956687577        0.0000000000000000        0.0000000000000000     
 lattice_vector -0.47292781439305531        3.9646949913199117        0.0000000000000000     
 lattice_vector -0.76842937133664513      -0.88923862129434117        2.6230577703138556     
 atom  0.15951453520422038        3.7871468448022068       0.44829292620308120      H 
 atom  0.90921785784859710        1.3602680285249074        1.7597316543053774      H 
 atom -0.12981876939386305        1.1529348550174883       0.43033936059377664      H 
 atom  0.49343177735869609        1.5068955974309117       0.74951023018196439      H 
 atom  0.90262316090599970        2.4584199310436263       0.44367717376420424      H 
 atom -0.14186246246561549        3.1815077322161586E-002   1.7540913641499751      H 
 atom  0.14630988314701335        2.6909006781660256        1.7427459968706731      H 
 atom  0.48060108964306442       0.41132388401345665        2.0437990481421831      H 
 atom   1.2548910959157853       0.20156481280002037       0.73837336149953314      H 
 atom -0.26248985574710670        1.7395170217503815        2.0496870516187831      H 
 atom -0.26868794866535861        2.8382737926518979       0.73190372667542503      H 
 atom  -1.0245643541683043        3.0452426048866634        2.0612491869558394      H 
