 # 12 angstroem -143.382733841382
 lattice_vector   2.6298836314459315        0.0000000000000000        0.0000000000000000     
 lattice_vector  -1.3154107327612119        2.4353016888202097        0.0000000000000000     
 lattice_vector   4.5454612094625530E-004  -4.8059754887540084E-004   2.9444113800255480     
 atom   2.6953472939815785E-003  0.90390491668533945        1.1594515976673667      H 
 atom   1.3171198831236581       0.90705175542159144       0.74897907326115865      H 
 atom   1.3171228547589469        2.2014985803710654        2.0761709442603258      H 
 atom   3.2142400957157246E-003   2.2025446691146242        2.7813152203828562      H 
 atom   2.8042924628635109E-003   1.0362922727819937        2.6313785977255479      H 
 atom   1.3169951563873619       0.39516515383293860        1.8212029321682419      H 
 atom   2.7984024160845919E-003  0.39744386891003386        8.7161029016604538E-002 H 
 atom   1.3173028876961452        1.0331564026664204        2.2219781432997654      H 
 atom   1.3171466513217671        1.5467239978880578       0.35050078100982918      H 
 atom   1.3173668418309985        2.1737018099931569        1.3096484156072319      H 
 atom   2.9632509676402029E-003   2.1731178100935735       0.60323191769020434      H 
 atom   2.7395916556305962E-003   1.5437035149642564        1.5592946861656636      H 
