 # 12 angstroem -143.30746048499
 lattice_vector   2.9848199205942070        0.0000000000000000        0.0000000000000000     
 lattice_vector -0.48661646728051788        3.8130383598909976        0.0000000000000000     
 lattice_vector -0.40996756970742637      -0.20054647841764037        1.6307274550918249     
 atom   1.6956081950341084       0.32634326925499918       0.31590815327225547      H 
 atom   1.0235744185218834        1.1603283755712896       0.48316429783416909      H 
 atom  0.94255650522036316        1.5199652902536627        1.1576093977777802      H 
 atom   1.1276596010907165        3.6281131815871026        1.3066906847955917      H 
 atom -0.49196555228867622        1.1412435864710959        1.3194506719448711      H 
 atom   2.0571867086519924        2.5038142283371134       0.49587351333271834      H 
 atom   1.5891754233632982        2.6971503036298015        1.1456203152543902      H 
 atom  0.45129737027489464        2.8738744018765519       0.35968621329217526      H 
 atom  0.16765923131534141        2.3106074980806843        1.3235964115242491      H 
 atom   2.4302515866324064        1.5289758062470555       0.34811567570137275      H 
 atom -0.17275784656678025        3.7298041774474355       0.52571504826655913      H 
 atom  -6.2595009585632286E-002  0.19578601465836223        1.1631113969728413      H 
