 # 12 angstroem -143.361437565005
 lattice_vector   2.9314227717888777        0.0000000000000000        0.0000000000000000     
 lattice_vector   1.4256638094652969        2.7108186677261652        0.0000000000000000     
 lattice_vector   1.3546532210212141       0.75203643008527654        2.3545933319050576     
 atom   3.0771405023609217        1.5918571973108366       0.35969113564303273      H 
 atom   2.6932792747579173       0.69059930378166312        1.7819664375361415      H 
 atom   2.7688103935912287       0.18831541836642635       0.21070521492282643      H 
 atom   5.1802455330829886        3.2888924289637811        1.9807612010231845      H 
 atom   1.9410606702154531        1.8861081969545845        1.8337312823062282      H 
 atom   2.3239983541967111        2.7875156263223744       0.41231047908386176      H 
 atom   3.4437550934618870        1.6347739664126175        1.0469967222633381      H 
 atom   2.0127380455171870        1.3844388551394708       0.26346220685063337      H 
 atom   1.2667139231743436       0.43944511603018865       0.99706531453206881      H 
 atom   1.5757153216135049        1.8426651766275173        1.1456493897808355      H 
 atom   3.7539576541953084        3.0381089437565008        1.1954654195323651      H 
 atom   3.0053635731672901        2.0930757762494867        1.9284445585397905      H 
