 # 12 angstroem -143.300465555384
 lattice_vector   2.9842970821540717        0.0000000000000000        0.0000000000000000     
 lattice_vector -0.48685123336193414        3.8133304192936035        0.0000000000000000     
 lattice_vector -0.40982205439269054      -0.20032706074785619        1.6307298468147158     
 atom   1.6949621686870624       0.32649370623879659       0.31595504449849282      H 
 atom   1.0234914726381787        1.1604724537221993       0.48334641848077792      H 
 atom  0.94257184555750084        1.5207079414736251        1.1576373389740311      H 
 atom   1.1276219337664111        3.6286618285406864        1.3069053810420750      H 
 atom -0.49221561425633853        1.1415420105241434        1.3192113015932625      H 
 atom   2.0567340505418867        2.5037552062902657       0.49594412666118542      H 
 atom   1.5890109763170412        2.6977378703856201        1.1458951343036261      H 
 atom  0.45123716795536056        2.8741784361376101       0.35969126190330458      H 
 atom  0.16744615670793170        2.3110177720801781        1.3235133357178834      H 
 atom   2.4289091108806220        1.5291695986184868       0.34781349460413474      H 
 atom -0.17308868056102072        3.7294730482858087       0.52577983191978817      H 
 atom  -6.2357969095830086E-002  0.19596034078293939        1.1630585401280817      H 
