 # 12 angstroem -143.213854395526
 lattice_vector   1.7339884403628270        0.0000000000000000        0.0000000000000000     
 lattice_vector   4.9293156666373690E-002   3.6285138877437655        0.0000000000000000     
 lattice_vector  0.63528936556395221        1.0466758821267386        2.9354279388292683     
 atom   1.7282262397607371        3.7572604153196174        1.6641661385654849      H 
 atom  0.67913095219264086        3.1504332677836286        1.3842233133846586      H 
 atom   1.6167517815624197        2.1978788249675421       0.40448621561410231      H 
 atom  0.65616143034886576        1.3342808299773758        1.3803432448808157      H 
 atom  0.74295853095088626        1.0824488484247816        2.6398397668554652      H 
 atom  0.92891574050615588        2.8015100751762083       0.68696068103839592      H 
 atom   1.4760839439710873        4.1016073928449996        2.3632107301599903      H 
 atom   1.5912126202192018       0.37867818301646300       0.40480212078607836      H 
 atom   1.4536925740692623        2.2906792865637762        2.3588088560426224      H 
 atom  0.90628774547453772       0.98656954571646815       0.68250883796513673      H 
 atom  0.76544189057360257        2.8923126088414230        2.6437079403309034      H 
 atom   1.7032864433902501        1.9381281360305216        1.6634799164814651      H 
