 # 12 angstroem -143.066346266176
 lattice_vector   1.7026882792644558        0.0000000000000000        0.0000000000000000     
 lattice_vector -0.24612483459309184        3.8002561337305090        0.0000000000000000     
 lattice_vector -0.72181252611670044      -0.42287997680528111        2.8162768707501082     
 atom   5.3140760803125950E-002  0.55253148451142509        2.5251974145513580      H 
 atom -0.13197361368710658        2.6682435152961452        2.2558738051000340      H 
 atom  0.44041905492369859        1.3814617670065523        2.6412960955979186      H 
 atom -0.44329790398595770        2.9945549132036566        1.5782166403614128      H 
 atom  0.83677917010108682        1.8120970018006539        2.0192866043089461      H 
 atom -0.38285407746563482        1.3101758266063370        1.3091710007960105      H 
 atom  0.93123624530074534       0.48085974379981467        1.1915591419989764      H 
 atom  0.24372206233388316        1.8939453286829813       0.76955813760785219      H 
 atom  0.52678489702058762        2.6889548312854585       0.72407952050707292      H 
 atom  0.14746018124629365       0.39075579257927157       0.24737099319884279      H 
 atom  0.53695904140049222        5.1152978524723204E-002   1.8140705689537970      H 
 atom   1.3208216256996641        3.3960090288995293       0.29373427073297287      H 
