 # 12 angstroem -143.265338384516
 lattice_vector   2.2435114816746480        0.0000000000000000        0.0000000000000000     
 lattice_vector  -1.4090321242929662        4.0564162826946415        0.0000000000000000     
 lattice_vector -0.81571305584793241       0.49568886564134496        2.0303818199311667     
 atom  -8.9699180425210245E-002   1.1597035182257829        1.7575423897467304      H 
 atom  0.49686360019759745        2.6032507931516058       0.99124101137087284      H 
 atom  0.57233884266386936        1.1270368307938496        1.2985766606469051      H 
 atom   1.1835303749548354       0.49110238302361342        1.0261549176292397      H 
 atom -0.57413785393035111        3.0575083523433690        5.5804910886747258E-002 H 
 atom -0.74857683433458400        3.6355506040079630        1.6155892289908602      H 
 atom -0.48567420604190020        1.5044473483259215       0.37301143406729043      H 
 atom   1.1499651068428312        2.1496696088963265       0.64350301447061065      H 
 atom  0.42451696759919844        4.0819989422911966       0.68087889870662222      H 
 atom -0.17387978969598081        2.8744417734628485        1.3971988797445203      H 
 atom -0.64007988768475677        1.9781294323285377        1.9438556719227629      H 
 atom  -1.1468596495563419        3.8239906157547674       0.27273789188901792      H 
