 # 12 angstroem -143.199986060041
 lattice_vector   2.9131981740138393        0.0000000000000000        0.0000000000000000     
 lattice_vector   1.1183518359028572        3.8059917733204043        0.0000000000000000     
 lattice_vector -0.43488623876674076       0.31416877214913658        1.6662332207344019     
 atom   3.0794333306452959        3.5632628597574181       0.82622911359512718      H 
 atom   3.2759842005187285        2.6939027142086185       0.79464287613407392      H 
 atom   2.6327989937160736       0.93924449527558396       0.55359395777980724      H 
 atom   2.5330395605687528        4.0661470027766597        1.3489384813232570      H 
 atom   1.1082120704691374        1.3213991794909963       0.23946315708979182      H 
 atom   2.6043587906589480        1.5118398278977820        1.0670454063507029      H 
 atom   1.8942829812447981        2.3102992217061527        1.1107828994038167      H 
 atom  0.42972982491185058       0.14090224794134443       0.50984857289907304      H 
 atom   1.1503966599629256        3.6850966897566479        1.6670888031741136      H 
 atom   1.2163096125328725        1.1297516156665059        1.3813263944581593      H 
 atom   1.8572901320524899        2.8861363902518065        1.6198803962392829      H 
 atom  0.90891943819298460        2.1907420128324002       0.27200425184274835      H 
