 # 12 angstroem -143.172584526727
 lattice_vector   4.2755371261386701        0.0000000000000000        0.0000000000000000     
 lattice_vector  0.31152167517220530        1.6090341836286839        0.0000000000000000     
 lattice_vector   8.7866250670350554E-004  -4.2938734830696930E-004   2.6481511704501970     
 atom   4.2224206608880852        1.3057493975019727       0.50422086099021901      H 
 atom   2.4619107112369196        1.3264403068297015        2.5742710638190798      H 
 atom   3.4759171690632384        1.0245238329762318        1.2171884639906836      H 
 atom   1.7147060414689999        1.0429469515037604        1.7512960082406228      H 
 atom  0.97683201409518106       0.75402353239856934        2.5027361242825861      H 
 atom   1.9606099435133486       0.46255511422623569        1.2275742469334363      H 
 atom   2.7408652369330770       0.73551773242200580       0.41079054426236128      H 
 atom   1.1571157841178366       0.21180258068433996       0.48016226264565842      H 
 atom   3.2584008808333644        1.5915261246762862        1.7785322895167568      H 
 atom  0.69738183506393958        1.5689481004117429        1.1544268546768490      H 
 atom   3.7420682449975016       0.22966697519734006        2.4958374655423889      H 
 atom  0.22402289563839425       0.48668358330266942        1.8391730617583346      H 
