 # 12 angstroem -143.273239551251
 lattice_vector   3.8591597147558394        0.0000000000000000        0.0000000000000000     
 lattice_vector -0.24454307731927324        2.1998201590660935        0.0000000000000000     
 lattice_vector  0.29954462908510143       0.28882353384232889        2.1755074566688624     
 atom  0.75579058843399372        1.8024627166793752       0.27439152226747388      H 
 atom   1.3601618302994554        1.5557608432563326        1.9153889482822342      H 
 atom   2.4140507873685544       0.94371295401120503        2.0872305232608808      H 
 atom   3.8330638472889129        1.4593798140634469        1.1904096238311024      H 
 atom   3.5282609032259282        1.9950099130605585        1.7248514520701221      H 
 atom   3.5006659252579420       0.75109803989682966       0.63676393542551635      H 
 atom   1.0278779679380246       0.84721645478738494        1.3621177641161386      H 
 atom   2.4468508309507269        1.3632484643992282       0.46522010540589176      H 
 atom   2.1419551208998371        1.8991481588538903       0.99936062922915303      H 
 atom   3.8054591309410131       0.21534157004469920       0.10242463442950252      H 
 atom   2.7189163911590786       0.40769814442127128        1.5531708298255817      H 
 atom   1.3325771690413331       0.31150799063885853       0.82755937901776833      H 
