 # 12 angstroem -143.462225531781
 lattice_vector   1.6575065060361314        0.0000000000000000        0.0000000000000000     
 lattice_vector  0.82975714862625671        3.9035453365354429        0.0000000000000000     
 lattice_vector -0.82854264498919428       -1.1534278148144046        2.8847536274130237     
 atom  0.67775161995531974      -0.15237345545524797        1.5573390411205488      H 
 atom   2.3329075165903617        3.6788641984427826       0.11481115775257864      H 
 atom   1.5061318263191357        2.3782068887651904       0.11481820196041004      H 
 atom  0.67771602331227976        2.4148648390821617       0.77302381636977058      H 
 atom  0.67610836196847424        1.1857048937247601        2.2154687189055715      H 
 atom   1.5044010451108849        1.1492929332880795        1.5573673809876827      H 
 atom   1.5074482372430162        2.4873147686818693        2.2154925226663136      H 
 atom  0.67765481871163336        2.4500576218965748        1.5573319829155319      H 
 atom   1.5061638158906405        1.1137607138783374       0.77303698379721975      H 
 atom  0.67611759434208463        1.0769212383036344       0.11492198030617341      H 
 atom  0.67471964118661121      -0.18710620777475417       0.77303810609628421      H 
 atom -0.15093376761559948      -0.11520588189585872        2.2155854744888144      H 
