 # 12 angstroem -143.462578559487
 lattice_vector   1.6709557392487477        0.0000000000000000        0.0000000000000000     
 lattice_vector   2.4147878502257813E-004   3.8606351707331061        0.0000000000000000     
 lattice_vector  0.82135923522861432      -0.70674449921332738        2.8946958668432057     
 atom  0.92559994407805524        1.3883985319066507       0.79851213122683318      H 
 atom  0.87069026992097076      -0.36875054354775583        2.7150775965435647      H 
 atom  0.90258212008439720        2.7958401835404025        2.0790327802211253      H 
 atom  0.38489941218004192       0.11054739162563480        1.2007564466756040      H 
 atom   1.1945688273110164        3.1101189621822631       0.66375722970628936      H 
 atom   2.2727191843837335        1.2880585378743139        2.6239306945560084      H 
 atom   1.1602424188054734        1.1668645409367338        2.1747406560118061      H 
 atom   1.7538034219266443        2.4548176860382998        1.7479731393503264      H 
 atom  0.64067914588412533        2.8490374591689172       0.26984060592920983      H 
 atom   1.4969027682754554       0.21631031309993654        1.6536183642792186      H 
 atom   1.7321825699222138        4.9351287705616947E-003   3.0276501967481506      H 
 atom   1.7860382531362249        1.7581436702259345        1.1129614286512657      H 
