 # 12 angstroem -143.461189855297
 lattice_vector   3.0636108686847443        0.0000000000000000        0.0000000000000000     
 lattice_vector  0.82408330420573350        3.8098586587153092        0.0000000000000000     
 lattice_vector -0.44564824396383795        9.6313121713117969E-002   1.5881698189827893     
 atom  0.93166587137661838        3.5812767651265620       0.25637544307379578      H 
 atom   1.6908792085998401        1.5511979482821703       0.59267372510079053      H 
 atom  0.79605951213293913        2.8530108849317277        1.1223363504674597      H 
 atom   2.3280902614540153        3.6088052221575402       0.64689278292649621      H 
 atom   1.3808869974264291        2.3752308590699265        1.3149823603671218      H 
 atom   2.5863729223127043       0.24927602304428206        6.3754549082468664E-002 H 
 atom   2.4629550494021468        2.8261624082059518       0.73198074728746443      H 
 atom  0.74374988120688779       0.31793030705649961        1.2611860985281105      H 
 atom   2.2757950227790222        1.0737129631788975       0.78605409362167245      H 
 atom  0.29428364752129360        1.5239296719981807       0.20274895797464945      H 
 atom  0.60912481742919655        1.1005958308196109        1.1762211127472586      H 
 atom   3.2235341483182904        2.3066066919682546       0.11736455711208021      H 
