 # 12 angstroem -143.212147703225
 lattice_vector   2.5356897186517062        0.0000000000000000        0.0000000000000000     
 lattice_vector -0.62052938796724533        4.7884581696235111        0.0000000000000000     
 lattice_vector -0.10168793480419766       -7.1197965451894635E-002   1.5443051146800588     
 atom   1.6026577285547854        2.6076064676021158       0.71611214768053444      H 
 atom   1.7192634382319192        1.0243020630965332       0.15457857900763916      H 
 atom   1.3520067942273057        1.7094191168986537       0.15765207469359366      H 
 atom   1.5609023767718277       -2.5457819646939345E-002   1.1968127745302992      H 
 atom  0.64560980370429488       0.21358994123001734       0.71594786355916840      H 
 atom  0.32734570460740992        1.6713399322027553        1.1822736005843697      H 
 atom   1.2858690961373711        4.0655441490834612        1.1831281757018015      H 
 atom -0.22483729646534695        4.1042382631142047       0.15837842991469808      H 
 atom  -1.7706627814803533E-002   2.3694850933968556        1.1971382778512369      H 
 atom   9.9981879507168345E-002  0.76591223909971795       0.63173263320757900      H 
 atom  0.14099691577912435        3.4182485884819207       0.15442985696466663      H 
 atom   1.0578892029899709        3.1606574962918157       0.63154684993362808      H 
