 # 12 angstroem -143.354517224593
 lattice_vector   2.8184382353982813        0.0000000000000000        0.0000000000000000     
 lattice_vector   1.4089399270911034        2.7197742427879086        0.0000000000000000     
 lattice_vector  -1.4088200077875908      -0.80740306391044636        2.4404251287122740     
 atom   1.4761879847803205        9.5243286237641861E-002   1.5980234573081300      H 
 atom  0.82577611233875658        1.3193080540872502        2.0064302813599402      H 
 atom   2.8862692786139901        2.0187366025515510       0.42763490829053413      H 
 atom   2.2383143293045404       0.79293753622927177        2.2738964117313711E-002 H 
 atom   1.4764373273339670        1.7467000243501987        1.2473168891974631      H 
 atom  0.82701103030216261       0.52260429033444156       0.83640930602683317      H 
 atom   6.7275503459024444E-002 -0.17553272040399628        2.4133765762245081      H 
 atom   6.5091922601397678E-002  0.36275987074514043       0.78576040565574001      H 
 atom   2.2386891868294576        1.5900986304646880        1.1889299191752036      H 
 atom  0.82989008619812676        1.8567910614549292       0.38216174018174531      H 
 atom   6.3686424847459913E-002   1.4792239524085911        2.0563351175981501      H 
 atom   2.2380637749338166       0.25346191189098788        1.6519975747772502      H 
