 # 12 angstroem -143.404505565025
 lattice_vector   1.6716650992963977        0.0000000000000000        0.0000000000000000     
 lattice_vector  -7.7101404552322689E-004   3.8589192458789698        0.0000000000000000     
 lattice_vector  0.83702634514431640      -0.69045299614327427        2.8779369172205524     
 atom  0.56685442244713957        1.1236635540162649        1.2871027294964188      H 
 atom   1.2116336382928472        1.0368415696029722       0.83038297607300493      H 
 atom   1.4021129747640495        2.1826624759293507        2.2456538998449829      H 
 atom   2.0478693059584168        2.0916706468856407        1.7902496011969560      H 
 atom   1.2122911933554330      -0.70878477718557242        2.7490226827558417      H 
 atom   1.6227832152697692       0.50423147441547400        2.4789601710398896      H 
 atom  0.98913086310196385        2.7157168443585111       0.58951053210924620      H 
 atom  0.98814986978385122       0.96759578888618314        2.5162807491546473      H 
 atom   1.8258044251980330       -8.9029172896833653E-002   1.5540592845845433      H 
 atom   1.6245637253180585        2.2507672443487459       0.56891587073491356      H 
 atom  0.78789231127594217        3.3062110399628852        1.5191343170973992      H 
 atom   1.4012752351328586        6.8932900575400261E-002  0.32576111384292733      H 
