 # 12 angstroem -143.300771653914
 lattice_vector   3.0540092800491907        0.0000000000000000        0.0000000000000000     
 lattice_vector  0.66159474965057830        3.7878306561057364        0.0000000000000000     
 lattice_vector -0.53750465501803668       -5.4809690691466857E-002   1.6044122039939319     
 atom   3.1605512452646405        1.2079462387202811       0.15595984860331061      H 
 atom   2.4000999316901335        3.3107259896932995        1.5925304542576617      H 
 atom   2.0359009580753789        2.1037519519070211       0.52199039693698679      H 
 atom   1.1423093941767346       0.80214220283018700        1.1032939989037358      H 
 atom  0.38670463697841001        2.4303292609335241        1.2078348767306557      H 
 atom   2.7385914418634658       0.75036838591187160        1.1084248855720580      H 
 atom  0.68618141830809010        2.0138770604425535       0.63507392192443302      H 
 atom   1.7231774459908391        1.1372530809985766       0.25161231756172520      H 
 atom   1.3776466838915165        3.6957510289952267       0.73070747333668240      H 
 atom   2.0926996392680071        2.3404632987032530        1.3262406420616126      H 
 atom   2.9897920623754435        3.6343423107466508       0.74846759191519840      H 
 atom   1.5144245007758752        3.2855635993226593        8.9771208565237806E-002 H 
