 # 34 angstroem -22013.1798391606
 lattice_vector   3.9547418221809214        0.0000000000000000        0.0000000000000000     
 lattice_vector  0.83119642631104929        3.8075463958186875        0.0000000000000000     
 lattice_vector -0.94271711073182651      -0.96694507050646461        4.3554271403908418     
 atom   1.2416999078583955        1.1462904123061086        1.8984328624622300      S 
 atom   2.0312849614955542       0.15069859315151060        4.1044304909503095      S 
 atom   1.1255794878394569        3.1097310089801873        1.9475193216651145      H 
 atom   5.3707110845962872E-002   1.5323561630286275        3.3755381334354935      H 
 atom  0.38468454283128728       0.52338558042050431        2.7151323857073488      H 
 atom  0.68748089209218899        2.4187393742980787       0.53178815806989199      H 
 atom   2.9475433547672885      -0.84126779131895457        4.2156647999434309      H 
 atom  0.43917667056418236        2.1807725483601179        3.4083925743256573      H 
 atom   2.9780820914907360        1.9946963753659293        4.0548699629638829      H 
 atom   2.8536840323126906        2.9179431724757343        1.4547470339673008      H 
 atom   3.5276617186448327      -0.15470914362964922        1.1160005643423254      H 
 atom   2.2455516934439106        2.0925134125075888        3.9317388654584686      H 
 atom   3.6635944811972774        2.9240609154553452        2.5936631349143888      H 
 atom  0.77855858482970208       0.59570392848713261       0.80088258330509821      H 
 atom   1.8581744885522127        3.0122803828827558        2.0709645166990489      H 
 atom   2.8765712722451569        2.0281337390317513        2.5548276825069678      H 
 atom   2.0347396713997057        1.8991139700540038        1.1791169124258616      H 
 atom   2.1924640681469247        3.1531917610390687       0.19219702459799493      H 
 atom  0.81927371188309162        1.8006777701772836        8.6991543161430054E-002 H 
 atom   1.6664954950442614        1.8383347641579411        2.9479073696293101      H 
 atom   8.8998245217384017E-002 -0.15014990090958319        3.8152937238395062      H 
 atom   3.4790575546146916        2.9253192506985015        1.0338367814369396      H 
 atom   2.1996238564816797       0.25000839560380689        1.9637954571442380      H 
 atom   3.4369688977117168        1.6684742033933773       0.84648022237928922      H 
 atom   3.1842853133014386        1.4473940408492010        2.1880150944232541      H 
 atom  0.39541890706898503      -0.73115741245335275        3.4475552316751497      H 
 atom   1.5675215818729320        3.1462423727160980       0.61364703703328716      H 
 atom   1.0733455229377542        1.0469917285903194        4.0390686424098314      H 
 atom   1.6059129232441807      -0.54123633854102227        3.0548312082919895      H 
 atom   2.1804423513406777       0.36482666654741275       0.46815426323518555      H 
 atom   3.3961960837249285       0.46364906284839713        1.5605227098330690      H 
 atom   2.8881469138283871       0.77372332960884505        3.2875976590456308      H 
 atom   3.2190337264259550      -0.23581365311415806        2.6275538881567013      H 
 atom  0.32517477541463879        2.1381397630144581        1.7871029115016783      H 
