 # 34 angstroem -22013.0904012291
 lattice_vector   5.3219677196472785        0.0000000000000000        0.0000000000000000     
 lattice_vector  -7.0106674474313790E-002   3.6868135668556015        0.0000000000000000     
 lattice_vector   1.1245841947771986       -1.7604190443797025        3.3366120059252644     
 atom   1.4706586394299661        1.7365992497853138        1.1357626850677400      S 
 atom   4.7305181154025417       0.84908143766606314        2.8680054176986816      S 
 atom   4.8992002695009562       0.52562383847140537       0.35861847949318693      H 
 atom   3.1745915708187216      -0.10116857143509138        3.2707587283457138      H 
 atom   3.5185362584398980       0.89933097178907417        2.3088017252211070      H 
 atom   2.5027066426353577      -0.36819082077326104        1.9088863914258078      H 
 atom  0.88196797061214705        1.9045704474679297        2.2932749618200514      H 
 atom   2.0873082883997736      -0.88400838433478612        2.8016470441391959      H 
 atom   2.8115986719316091       0.63538434371607722       0.43670968691758849      H 
 atom   3.4307184235991204        2.3379069000549673        2.4064420976904715      H 
 atom   1.5017003861079998        3.0546380868199656       0.89779063362006484      H 
 atom   2.3811651334737278       -1.5291374291753410        3.0950462683348152      H 
 atom   4.7859235704556315        2.6506825797360669       0.10883875126598702      H 
 atom   1.3446182996830853       0.43170423965168159        1.3021313594922723      H 
 atom  0.24606189177782106       0.13457265110209404       0.30810842772479657      H 
 atom   2.7694228470395421       0.24882961625334568        1.5983471035938479      H 
 atom   4.8559863322776762        2.1540565626760402        2.7020252663806845      H 
 atom   4.5552051896561210        1.7053190671341707        1.0860339801790873      H 
 atom   4.1837089016026541      -0.21630179059486310        1.2015716432280878      H 
 atom   1.2089007043911943      -0.17600503581372795        2.3665501308023358      H 
 atom   1.6459312858948059       0.88065712002235963        2.9175287288366256      H 
 atom   3.8878343951410548       0.42844543722587997       0.90941106736823285      H 
 atom   2.3337639714897471        2.3067322042971284E-002  0.22996531505550369      H 
 atom   3.7697171638855598      -0.73407864659070721        2.0926245437451869      H 
 atom   3.0258926603311886        2.6871295725617497       0.73274209881128627      H 
 atom  0.29064944503728118        1.6957920867899090       0.55835089254289461      H 
 atom   4.6979562020052219      -0.46865026019143374        3.1062817449040674      H 
 atom   5.3189754786944334       0.68136236143565188        1.7102031823710351      H 
 atom   4.9930129439815207        2.7615469884250343        1.6378234010471779      H 
 atom   2.3778090749273297       0.90111840078314898        2.7887050577306858      H 
 atom   3.8234482823462161        1.6854682780377299        1.2153967865239961      H 
 atom   5.5921402456265454      -0.55691340009420742        1.2497039449525660      H 
 atom   6.0003771505534269      -0.54391081988809808        2.7534082275478831      H 
 atom   2.6830742921598376        1.6868626324411056        1.6951433982561324      H 
