 # 34 angstroem -22013.2435248143
 lattice_vector   5.6313550093869615        0.0000000000000000        0.0000000000000000     
 lattice_vector   1.1271332484271317        3.5456225359840849        0.0000000000000000     
 lattice_vector  -1.5687884863685710       -1.3492267897740089        3.2720032371562562     
 atom  0.41527855722420065        1.5721984184115227        1.8727691909220889      S 
 atom   3.2280577939908643        1.5742518680149726        1.8817671028325895      S 
 atom   4.6207046244545937       0.77074454538235226        3.0426448793830271E-002 H 
 atom   1.5060092795530702        1.0458506943229573        1.3639048626133712      H 
 atom   2.6639696907254033        1.7200583413897870       0.69928734035703255      H 
 atom   1.8051100406113667       0.76876658043297175        2.5007107329679364E-002 H 
 atom   4.9567210955541627        2.1014824181779956        2.3825471712006578      H 
 atom -0.75956037034475055      -0.60873033958868694        3.2393639598545065      H 
 atom  0.86797851754337174      -0.11137795691394319        2.6146096913256196      H 
 atom   2.2804333434664139       0.18405801484369563       0.45610149738207018      H 
 atom  0.99653390409370579        2.7609676171387503        1.7606107885016866      H 
 atom  0.46163834523978464       0.20246078716343327       0.50836237231184411      H 
 atom   3.7943912486042675        1.4291762363836966        3.0621994177727276      H 
 atom -0.15934196917415022       0.38045024721025578        1.9847654197827889      H 
 atom   5.0962483272272152       0.17974726715997424       0.45143444645661540      H 
 atom   1.6210508979432585        8.7935133899940621E-002   2.5850578292178179      H 
 atom   3.8082770055244244        2.7635450537208435        1.7699709323318427      H 
 atom   4.3325829206967903        2.1005540342149240       0.36379170537852640      H 
 atom   3.2765123064860231       0.20881070898169601       0.51506510377137582      H 
 atom   3.6839534015190849      -0.10897769605706188        2.6205161083352855      H 
 atom  0.87879482732966874        2.3955366886925962       0.11866005615465350      H 
 atom   2.0551938370560139      -0.60239314244537479        3.2467065252441643      H 
 atom   2.0266677147441809        3.0606641732108097        1.1673837718545359      H 
 atom   1.6535299238174195      -0.28666005755941631        1.1399052853455933      H 
 atom   2.1382249574293026        2.1011687928793505        2.3911481261870362      H 
 atom   5.4807917128835895        1.7172840259993341       0.69211464820614321      H 
 atom   2.6538983230065551       0.38230880018234303        1.9934855937861429      H 
 atom   4.3181878616673863        1.0450585429229271        1.3719405259421071      H 
 atom   3.7126425561354606      -0.48245814098035461        1.1750312330172961      H 
 atom   1.5209941799680249        2.0976362277735898       0.35030234459398185      H 
 atom   3.6909395181479541        2.3991150070539402       0.13127516728430058      H 
 atom   4.4671998617478632      -0.28928274636607670        1.1364765593488386      H 
 atom   4.4382945178827748        8.3408294739328842E-002   2.5775084847047864      H 
 atom  0.98080074390408412        1.4278581135252739        3.0548495146160843      H 
