 # 34 angstroem -22012.6973885987
 lattice_vector   5.2137319292081905        0.0000000000000000        0.0000000000000000     
 lattice_vector   1.3675141386086447        3.6724333436189363        0.0000000000000000     
 lattice_vector   1.4300827520234316        1.5392693620317526        3.4023186360972280     
 atom   2.1775031125537145        2.8473528274684621        2.9111187024620149      S 
 atom   4.3719703519845030        2.4765451301377905        1.4626738373525845      S 
 atom   5.8924493206616777        3.5562717393981269       0.10953191738659859      H 
 atom   2.3313664839164323        1.7474071455345255        2.1773445525187536      H 
 atom   3.0948212294714206        2.1692413276593507        1.1162241377842070      H 
 atom   3.0354381663233587       0.71024974824962439       0.61103396243015284      H 
 atom   5.7626702806165264        2.4532887090708488       0.16574905105924534      H 
 atom   3.1094259995881330        4.5184007044573216        2.7273753670158172      H 
 atom   4.8492570433309075        5.1052791501978598        3.3195105193496119      H 
 atom   2.1752930452052635        1.3178098676506127        1.0140387604316756      H 
 atom   2.3852371466051050        3.5822637281201559        1.7969354426014006      H 
 atom   3.5928413606287730        4.1578112152522211        3.1782743701283578      H 
 atom   5.5891371145533100        2.9724687355068515        1.6863486693873502      H 
 atom  0.68221026935329998       0.54093677585684719       0.62189085261860388      H 
 atom   6.2714267650402062        3.6509443987169803       0.83549919040417486      H 
 atom   3.7705376077119226       0.58220756418778841       0.42138547614133376      H 
 atom   4.4354265548864760        2.9025062873285234       0.19213716110387960      H 
 atom   5.1790149860792400        3.5798222410197553        2.9054236755461580      H 
 atom   4.6485833831818386        4.6879859416488392        2.3040411346494318      H 
 atom   5.9189330738845873        1.5067648885521649        2.3751083516875471      H 
 atom   1.3155681254447522        2.2630206420395886        1.2209655698895920      H 
 atom   4.9542218431431371        4.4071256984261229        1.6719160538500941      H 
 atom   3.2714719328032529        4.3005338876905244        1.3002050762371109      H 
 atom   2.9255790480676698        3.3450987141974697       0.47210414878221718      H 
 atom   3.8687771843436574        3.6050872535410905        1.9359574683013661      H 
 atom   6.0392508797198357        2.7604098567500297        2.9289086034691989      H 
 atom   4.5321432729895657        1.8661734881407721        2.6731676535352666      H 
 atom   4.8338662643578516        1.2855848410278934        1.0484655384225594      H 
 atom   6.2582405409932127        4.3923074591863376        2.5936934015444719      H 
 atom   1.8727307156549546        2.7121927719520222       0.90620066433573809      H 
 atom   4.5789396921260828        3.3703820660599866        3.3005123759651842      H 
 atom   6.2033818407747212        4.0374401729881555        1.8635680508569852      H 
 atom   6.0660677697083463        1.3122502169295127        1.6518894500965826      H 
 atom   3.4948413904661111        2.8111683674637882        3.1527314041410346      H 
