 # 34 angstroem -22012.891224938
 lattice_vector   4.0015023225525823        0.0000000000000000        0.0000000000000000     
 lattice_vector  0.77600240614567639        3.7351339758741369        0.0000000000000000     
 lattice_vector   1.0381142683503907E-002 -0.12901935250459529        4.3730645302103692     
 atom   1.3279202461702371        1.4014856502407465        1.8637287780142928      S 
 atom   3.3341864150614424        1.3360824773163233        4.0517843163042047      S 
 atom  0.68946392439296811       0.73873319471830068        2.8267501995110629      H 
 atom   3.9726270165581790        1.9995481084789464        3.0889515039700903      H 
 atom   1.3855148258168599       0.97809472592127278        3.9360673266935038      H 
 atom   1.9575360512282696        3.2791764550042264       0.41174070859544931      H 
 atom  0.21323517008990142       0.34460737488853566        4.0236353557568600      H 
 atom   4.0486612831511444        3.1771281692261533        3.8773839769013518      H 
 atom   3.3960881479945089        3.2300936830939779        4.2243907625711943      H 
 atom  0.85799821045817204        3.0394968740309385       0.51849744090715089      H 
 atom   4.5708635895207372        3.5618439292214106        1.0242548925850745      H 
 atom   2.8640555390075972        2.9745614907251068        2.7051659725374595      H 
 atom   2.5072984757074717       0.72185075517551256        3.2088424298583322      H 
 atom  0.50212295476635871       0.78596198843732079        1.0217282878197536      H 
 atom   1.3869726237294695        3.2953919503372262        2.0421855445519563      H 
 atom   2.0394363569576122        3.2428052310287314        1.6949645440794865      H 
 atom   1.9667708623101725        2.0662059060692957       0.90175880556991006      H 
 atom   3.4722733609386420        3.3229997584347344        1.1331460668417710      H 
 atom   1.2804324198661661        1.6943626306070014        4.1663349856594269      H 
 atom   2.1539459385639268        2.0156604271986653        2.7072390740795709      H 
 atom   1.4759129732994680        3.2587923433576016        3.3208462412945923      H 
 atom   3.9645999264037362        3.2142406417235150        2.5974840951320415      H 
 atom   2.2074791952508597       0.40925121305087298        1.8370902089277774      H 
 atom   4.1486229578239628        2.0806315366400239       0.52138113008916920      H 
 atom   3.1164743852376389        2.6508143781975253        1.2640593969478704      H 
 atom   1.1251349685723193        2.5832654703997120        3.4508416959141841      H 
 atom   1.5333504533496909       0.21778406069628320       0.27860841788354784      H 
 atom   2.4538777006413510        2.3276865346566096        4.0784174043172134      H 
 atom   2.5754417429704133        3.4974484986486138        3.2105600582684146      H 
 atom   2.6847052078397065       0.80130292572858686       0.64091269868546918      H 
 atom   3.3813280229408864        1.0439660037147793        1.7494192461150544      H 
 atom   3.2761352353507851        1.7603102112877500        1.9793787309542559      H 
 atom   3.5351354696254469       0.15623575335645204        2.4649998348567315      H 
 atom   4.4479603599473352        2.3922853032176836        1.8916780326707394      H 
