 # 34 angstroem -22012.9766029527
 lattice_vector   4.0935144947189341        0.0000000000000000        0.0000000000000000     
 lattice_vector  0.30180594890751822        3.8767600577630015        0.0000000000000000     
 lattice_vector -0.95244819402677627      -0.58368880073432439        4.1419862738015922     
 atom  0.85686719735966643        1.5164126184434461        2.1906420285985200      S 
 atom   3.0555032382310863       0.57192818221967734       0.15554493967701954      S 
 atom  0.96948013446260595        3.6492534547592546        1.1465551807133874      H 
 atom  0.16615302622438347       0.46155793370196052        3.7438945035449223      H 
 atom  0.42114425421188773       0.27654524009032866        2.3545041425183704      H 
 atom   2.5388512189112133        1.2280749715378303        4.1333116463903705      H 
 atom -0.56985395231527891        2.1758445332517358        4.0242341077689270      H 
 atom -0.25517803751786916        1.9872311349736869        2.7650276450901043      H 
 atom   2.2628922543069590        2.2136255493571499        3.3463813194103955      H 
 atom   3.2445462600216253        2.3164061375450342        1.1989342625380983      H 
 atom   3.4425764828473313       0.57736320487963733        1.4131138440812450      H 
 atom   2.8516772971537638        3.2327511093592092       0.31788813509744185      H 
 atom   1.6446721721463888        7.2209170559625153E-003   3.0531138666782431      H 
 atom  0.98899624222951699       0.19027708152816003       0.62179346253866030      H 
 atom   2.6170654880999491        3.5041366635878073        2.0694456740107374      H 
 atom   2.6691165586447978        2.5121050666661193        2.7817399385837316      H 
 atom  0.47022646239087890        1.5115125194229542       0.93295530794289283      H 
 atom  0.59220425779461638        2.8693678961193059        3.7058373195937344      H 
 atom  0.18448221891827377        2.7612017802859921       0.64282765606095060      H 
 atom   1.3624241315687540        2.7322611846194755        2.0273375010897787      H 
 atom -0.21669475005787836        1.0913642887872548        3.7730750858108082      H 
 atom   1.9975862030645635        1.0111423076777024        1.7830874398858494      H 
 atom   1.3150675654487918        1.4967332803318718        3.4346581108170975      H 
 atom   2.2066552890309472        3.5809312136714766        1.4685149991817263      H 
 atom   2.9236124192424451        1.8984940540011823        1.7237457343389009      H 
 atom   3.2146378126544000      -0.48286393477161327        3.7225104401903648      H 
 atom   2.0071745356960107        2.3842261371016478       0.87738624002627108      H 
 atom   1.5971139967114281        2.4616229525200355       0.27620649135527725      H 
 atom  0.99871788192319821        3.1675097948614472        3.1412000679943257      H 
 atom   1.9149042600996735        1.0781708444133078       0.56273533487012994      H 
 atom   3.1766084823068299       0.41317154633669312        2.7148644899341887      H 
 atom   2.7933886249213540        1.0427155799469279        2.7436614415499001      H 
 atom -0.26241767727554777        3.2053778214939110        2.4635370942629491      H 
 atom  -6.3634918849798092E-002   3.2040160478416975        1.7031110282410880      H 
