 # 34 angstroem -22013.2430049359
 lattice_vector   5.6287531543469989        0.0000000000000000        0.0000000000000000     
 lattice_vector   1.1257197892450872        3.5466423087892913        0.0000000000000000     
 lattice_vector  -1.5680546001296660       -1.3498385417708629        3.2719739856319210     
 atom   1.3432040757284303        1.2925095688996064        1.8477654397898760      S 
 atom   4.1572591144394417        1.2930962091691858        1.8478598987449788      S 
 atom   2.9839514603033552      -0.88702879486889974        3.2143976430693475      H 
 atom   2.4329588011300340       0.76480489330237356        1.3371962776033373      H 
 atom   3.5918267698575885        1.4373148420225623       0.66624061411782343      H 
 atom   1.7956846860106195      -0.39088688591657150        2.5887463647503544      H 
 atom  0.25315892959905628        1.8213443108198948        2.3572280648750130      H 
 atom  0.16880243319559785      -0.88597898738006298        3.2126909476417747      H 
 atom   1.3893052383283966       -7.4353386823843251E-002  0.48144999592372384      H 
 atom   1.1642150303552588      -0.86096857309728936        3.2702149391277135      H 
 atom   4.6078638550956041      -0.39209591225996993        2.5864953346782205      H 
 atom  0.39482008032317145       -9.8753794104870063E-002  0.42432742328342998      H 
 atom   4.7226171992351063        1.1473625357081216        3.0293970042743483      H 
 atom  0.76467633481687947       0.10234642252083341        1.9599199781411036      H 
 atom   4.2043096297356151       -7.5457124957709745E-002  0.48316036240785470      H 
 atom   2.5494769111590685      -0.19669652240517566        2.5510567384724485      H 
 atom   4.7350543539853511        2.4835278824344562        1.7355511871033877      H 
 atom   5.2624576785481194        1.8199970014688869       0.32985125218778810      H 
 atom   3.7049955958403853        2.9755441197552357        1.1047038222793624      H 
 atom -0.26694185253941527      -0.19610806990942545        2.5520631938439706      H 
 atom   1.8057727420792997        2.1159940159528960        9.3574622409997879E-002 H 
 atom   3.2090661452839351       -9.8818830186761242E-002  0.42406272238632281      H 
 atom   1.9210590115529882        2.4831792749771884        1.7364084345663986      H 
 atom   2.9509935008518760        2.7827693532532525        1.1443128507424745      H 
 atom   3.0674502299437068        1.8218115130123154        2.3576302313066173      H 
 atom  0.77745601544764176        1.4373078803550077       0.66622960790323871      H 
 atom   3.5786959284629387       0.10273411644942089        1.9590741485059981      H 
 atom   5.2472565006052436       0.76536477924084700        1.3375370174247001      H 
 atom   5.7674734775112277        2.7823664843537497        1.1434260692094702      H 
 atom   2.4470415297837080        1.8199529126034228       0.32966511504867219      H 
 atom   4.6210559730455927        2.1156623933103180        9.3671463616574344E-002 H 
 atom  0.89292175881780611        2.9767151064780988        1.1067717207581018      H 
 atom   3.9784729641162198      -0.86093409827990941        3.2700465820789217      H 
 atom   1.9082329478247626        1.1472543632193464        3.0294144967816301      H 
