 # 34 angstroem -22012.8841870454
 lattice_vector   5.3302768986342661        0.0000000000000000        0.0000000000000000     
 lattice_vector   1.4867881735424129        3.7027089041920291        0.0000000000000000     
 lattice_vector   1.4267058151214014        1.6163207718265682        3.3157776200595843     
 atom   1.5883973394453206        2.7902785476227590        1.1183571016558247      S 
 atom   4.4578360044734913        2.7311266603041520        2.1271267747770968      S 
 atom   4.4080965653185578       0.79984166897216502        1.3364924707083181      H 
 atom   3.3596784894295006        4.0929452443359766       0.71068091422648494      H 
 atom   3.4322910579146271        1.8754414144044627        1.9626713134624396      H 
 atom  0.95947758186269538       0.88625128246253793        1.1885415207558261      H 
 atom   6.6059222351333533        3.7848410137017447        1.9829960249258218      H 
 atom   5.6655683312414302        1.0699044257296455       0.80785703995281344      H 
 atom   2.4512632499882763        1.0986314098615559        2.1187308243898735      H 
 atom   2.4693556951966853        2.5557439646327800        2.7753454199069445      H 
 atom   1.9745277615516341        3.4888067203067994        2.5499034935488968E-002 H 
 atom   6.1422389758340570        4.7146052122890119        3.0392251324160018      H 
 atom   4.2525065200359622       0.17210853100821508      -0.10045645519202524      H 
 atom   6.6413115540162382        1.9913129909934306        2.1247417764890892      H 
 atom   5.4373917913001799        4.6851448617979017        2.6888448825948417      H 
 atom   2.7622852904905013        4.4288221104434422        2.3607848371014750      H 
 atom   2.5693081393336428        1.0365186805776336        1.3662464716292626      H 
 atom   5.1925592449932223        4.3599386412128149        1.1484304294955650      H 
 atom   4.3121177040444323        3.2739616759911039       0.91457229873605728      H 
 atom   6.3765123611257044        3.5929313761016148        3.4227357442836879      H 
 atom   7.3579578277851532        4.3822039419815351        2.5860015518279149      H 
 atom   3.0918953861670149       0.79112027412629837       0.11145641560636729      H 
 atom   4.5397995210280575        5.4959420115314366        3.3007452145811094      H 
 atom   2.7986525765480654        3.1485111571553186        1.5227098847292684      H 
 atom   3.5723372686751267        3.6307749692243174        2.5293720918006262      H 
 atom   5.6815331712360813        2.8453528692420926       0.65993645675894519      H 
 atom   1.8944007243856840        1.7089993573106912       0.41937407775243601      H 
 atom   5.2659837824088678        1.7451184155181985        1.7564470078220611      H 
 atom   4.3333310205275328        1.7533165937064010       0.49875951086997661      H 
 atom   6.2171543835026410        2.2982676587585424        3.1476433128005774      H 
 atom   3.3087280292703771        2.1209479773873956       0.57496690804592998      H 
 atom   2.1233025284263709        3.1651878012515060        3.0440133656208417      H 
 atom   5.5026876499702118        3.4764962763969036        2.3573964541819805      H 
 atom   3.1949955991717651        2.6331861130667864       -2.0494623285373520E-003 H 
