 # 34 angstroem -22012.6980846703
 lattice_vector   5.2187434246612057        0.0000000000000000        0.0000000000000000     
 lattice_vector   1.3723655615368873        3.6700920080765247        0.0000000000000000     
 lattice_vector   1.4329940580624034        1.5368242412784070        3.4015139674995902     
 atom   3.2248638683829767        3.4236452815284308        2.6634145316147757      S 
 atom   4.8179980882067799        2.2600786267217696       0.71213117642437873      S 
 atom   1.7976527075948439        3.4183347748042046        1.1568488307709908      H 
 atom   3.4271229055355010        2.2769436880223806        2.0080046427422977      H 
 atom   3.6010693758811865        1.7645515138838788       0.48790464812927747      H 
 atom   2.9084695647388163        1.0826133243642218        1.3337013097626373      H 
 atom   1.6376174035496427        2.9867714467101929       -4.3059385975491027E-003 H 
 atom   2.2951330212858529        1.7500980724221009        2.8478866237245888      H 
 atom   3.1198100533597510        3.4175436722407304       0.52165145392558188      H 
 atom   3.2915434706664994        1.1744351106422921        2.0598074467439043      H 
 atom   5.7704888563088534        1.1683136937901650        2.2587136205912088      H 
 atom  0.69543921690438271       0.43862417628086248       0.87242316053791613      H 
 atom   6.0951838201007913        2.5656128145896173        1.0573381823483246      H 
 atom   1.5845178207853909        1.1523977472186526       0.37701574707771635      H 
 atom   5.9695900880935158        1.5890418133507540        3.2726690116157409      H 
 atom   2.9825164018458041       0.70145933486117529       0.30825556069163196      H 
 atom   6.0929666783197147        4.4049935165088172        2.9019561936681471      H 
 atom   5.4364515509152813        2.7014717210940153        2.6673813331396210      H 
 atom   4.3591016377143372        1.8801335832236012        2.9815846205480696      H 
 atom   1.8118405491332195        2.1114019739483125        2.3970921493245503      H 
 atom   2.0972785841700801        2.0252409108567919        1.2673858706010510      H 
 atom   4.2301189806068260       0.33169523454709843       0.50360933804369834      H 
 atom   3.2904098812931810        4.1924066365525263        1.5505482957944723      H 
 atom   4.7051869343658232        4.7662588153318728        3.1984760406446942      H 
 atom   4.3539629668756055        3.4493312169549983        1.1255513262304417      H 
 atom   7.1267239831146636        3.4579635930329009        2.4194386233968319      H 
 atom   4.7552608645094052        1.8339365189800754        1.9828656616906144      H 
 atom   5.3176737632114923        1.1316982131698772       0.23454353732421188      H 
 atom   6.1569297283882429        4.0224914076773111        1.5649046265599786      H 
 atom   2.6582016558721069        2.4685054412921845       0.95076996916880230      H 
 atom   5.4219996592943405        4.1560003861230621        1.7497798603174299      H 
 atom   1.0435340006056946        1.3914406125990018        1.7030726491638013      H 
 atom   6.0437550686482764        2.9004030428276244        2.2783565852711347      H 
 atom   4.5772593961690120        3.5141166581182932        2.6470827721452315      H 
