 # 34 angstroem -22012.5358498783
 lattice_vector   3.9913641978355519        0.0000000000000000        0.0000000000000000     
 lattice_vector   1.0893172036530974        3.9600360315068182        0.0000000000000000     
 lattice_vector -0.78269914167400878       -1.1491176404648213        4.1170297077385820     
 atom   1.3911696574184991        2.7196766930182066        4.0302984851657957      S 
 atom   3.1997380147864360        1.1062490415522095        3.2419652566873678      S 
 atom   4.0604803606314324        2.7854592025411420        3.7435796220677200      H 
 atom  0.87168652762212784        2.7858882315815219       0.92998556115566178      H 
 atom   3.5131194080962671        3.3499663395841615        1.5354719332373516      H 
 atom   1.3574590850289028        1.8630172158702289        2.8727878673680700      H 
 atom   3.5846759423127930        4.0101753739939259        9.3734194050933001E-002 H 
 atom   3.3976568540892891       0.61354329908807592        1.0639127634623267      H 
 atom   2.1790674592486936      -0.70528420345543608        3.0645975891829682      H 
 atom  0.52411482973493650        1.0972013232676938        1.9508369648024757      H 
 atom   1.9534773877616334        9.4449858642276299E-003   1.5068347021830575      H 
 atom   3.7600963987172298       -8.2321627050513518E-002   1.2044333483485858      H 
 atom   1.7011126996028025      -0.10182187196925419        2.8719827272638634      H 
 atom   1.7887666748444551       0.96562041453718583        3.0610861801391791      H 
 atom   2.4689275417697925        2.6586915508440518       0.53569571460648124      H 
 atom  0.88674650020014034       0.40154407202584202        2.0917057024954460      H 
 atom   3.3503147494122016        6.6405331183540736E-002   2.3938132497364735      H 
 atom   2.9047885093823274        2.3163891170844102        2.6193947964867275      H 
 atom   2.3312113479718328        1.0071942166969234        1.6485899242909217      H 
 atom   1.8593858028696146        1.6256198918058911        1.6194315858691419      H 
 atom   3.2464300463987259        2.3471775556899819        1.1874485120005569      H 
 atom  0.51396944215871432      -0.31290624667009004        3.0763751313034255      H 
 atom  0.93406404503210916       0.94862346329989056       0.76129403554495378      H 
 atom   2.1275556021517033        2.6286270048566753        1.9675987877382770      H 
 atom   1.7401271721091394        3.3045862836422475        1.8114760352333970      H 
 atom  0.51046048999664395        2.1895671925932945        2.2248995210780222      H 
 atom   2.1048916166941285        1.7200929113934973        9.0152341766380137E-002 H 
 atom  0.53029640045739002        1.0413015345632166        3.5285584253794853      H 
 atom   3.7706068911275179        1.3283091315398610        7.9113400152644967E-002 H 
 atom   4.3380799354064834        2.9504497611002507        2.3028605917995071      H 
 atom   2.5834602061289464        1.1176131878643785       0.28370877407793776      H 
 atom   1.0350197452819343        2.0248401951600830       0.85273208267002143      H 
 atom   4.0160491021536311        3.1125303954175978       0.28215687044091758      H 
 atom   3.6331419662991773        1.6705761975480600        1.3435843914433805      H 
