 # 34 angstroem -22012.6985870115
 lattice_vector   5.2172725254671697        0.0000000000000000        0.0000000000000000     
 lattice_vector   1.3706203975473434        3.6706425189393350        0.0000000000000000     
 lattice_vector   1.4325958292183671        1.5370388312218568        3.4016414997348159     
 atom   1.4575797783560227        2.4360885190110548        1.1498452406688691      S 
 atom   4.4821056632585918        2.8083616885075657        2.5996590156085824      S 
 atom   5.3725152209114340        3.8517346600983529       0.74319541412808254      H 
 atom   2.5779341288592841        1.6319923078607645        3.2238810593416329      H 
 atom   3.2645615136753179        2.3130963249487984        2.3758014502428275      H 
 atom   2.8953773577913000        3.8580269361962385       0.54892810675770454      H 
 atom   6.5228084394676689        3.5362025241788286        1.8832098822876422      H 
 atom   5.2598254154128972        1.1248815632348703       0.88068149771405835      H 
 atom   2.5900802941155541       0.89114369936243720        1.4678361151747887      H 
 atom   2.3230961118597042        3.0209208194416863        2.8394071284686491      H 
 atom   1.5236849089641005        3.2041050045647252        3.7481062142369515E-002 H 
 atom   4.3869259752959220        3.0353891787771254        5.0229239029985204E-002 H 
 atom   4.4947598343392414       0.40202877152603317       0.18733142974323172      H 
 atom   5.7420660571774000       0.76694313830322802        1.3349244520873311      H 
 atom   5.2670667971526388        4.5493045015062883        2.3910506493452375      H 
 atom   2.7852833355957731        3.9728220519438491        2.4082940607435890      H 
 atom   4.3220719283103994        3.4179843749540817        1.3885387383128742      H 
 atom   5.5717042616337551        4.2691669418410836        1.7575665304290891      H 
 atom   3.6519920500987575        3.1644257254537682       0.23732509583356240      H 
 atom   6.9831075825842426        2.5708067307520990        3.1527535477779973      H 
 atom   6.9497700693889746        4.6553149526038871        2.7619504339563394      H 
 atom   2.9852656554091754       0.84454622366610033       0.46820966831206384      H 
 atom   2.6486850666278476        1.2490602681877470        2.1958234999660378      H 
 atom   2.9335178964392998        3.7749258863428796        1.6858302533368472      H 
 atom   4.0171809101327050        3.9978254045312638        3.0120953482945270      H 
 atom   5.3578183266754236        2.4719536203253680       0.90875608248551165      H 
 atom   1.6571764682318066        1.2900050988810117       0.49383426078329440      H 
 atom   4.9818011667063997        1.6785437125835767        2.1243968268271201      H 
 atom   4.2737311494900609        1.9140111252543031       0.76335250613043992      H 
 atom   1.2499940305003259        1.7016048927042235        2.2644226552767210      H 
 atom   3.6711442253410320        1.7084734480287815        1.1558517352474678      H 
 atom   6.6791648581737668        3.9646767196984722        3.0465728947636150      H 
 atom   5.7591862568005858        3.1141950361943151        2.9448498674561461      H 
 atom   2.8096876792540750        2.5235645777135423        1.1333150311421567      H 
