 # 34 angstroem -22012.6993614136
 lattice_vector   5.2192448031218257        0.0000000000000000        0.0000000000000000     
 lattice_vector   1.3726383722047968        3.6703565792494008        0.0000000000000000     
 lattice_vector   1.4349008414270510        1.5361644635516101        3.4011312376425114     
 atom   1.7052714807653973        2.0824866894885923       0.80362384102950035      S 
 atom   4.7318865314647880        2.4552475075677189        2.2532952589581510      S 
 atom   5.5176893702471395        4.1957314041658789        2.0444503026046386      H 
 atom   1.9060683338706050       0.93572419906437698       0.14817704136216425      H 
 atom   3.5146129083560762        1.9589842152782855        2.0298756848706128      H 
 atom   3.1436072036931288        3.5051484096434402       0.20137972053611369      H 
 atom   6.7731002838251220        3.1826552155343686        1.5367651073238362      H 
 atom  0.77277300137804572       0.41252984388302483       0.98823709592410047      H 
 atom   3.0340811048555665        3.6218913597811060        2.0601895323989439      H 
 atom   2.0157597109750283        2.2192479443405486        2.8055610530663717      H 
 atom   3.2049384828826590        4.3864606808059383        3.0919499967132409      H 
 atom   5.5098797726479072       0.77088281070620912       0.53438198380220636      H 
 atom   5.8223052648321572        3.9165518733749853        1.4108835819935728      H 
 atom   1.4982226454389269        1.3484293831108662        1.9188043670202592      H 
 atom   5.3354737467096847        4.3490333783159567        3.2910527411087509      H 
 atom   2.8381072088886983       0.53740262364862879        1.1211643931260011      H 
 atom   4.5724058258545206        3.0635975854131186        1.0417268088572080      H 
 atom   3.9195770720990466        1.3586152881648099       0.80870614626458137      H 
 atom   6.0707099976818899        4.2190577522913690        3.1064142025701447      H 
 atom   6.1785220571807304        1.5860940893995306        3.2417361611610809      H 
 atom   7.1992250012829802        4.3013732161241531        2.4147731379446356      H 
 atom   3.2354089521367060       0.49264955695711654       0.12276735662954201      H 
 atom   4.1971468039752775        4.9475812630103810        2.8770840517755034      H 
 atom   3.1837758684520332        3.4184775119009898        1.3393223939156522      H 
 atom   4.2668705633120370        3.6445760303141834        2.6653388057080085      H 
 atom   5.6076217080693018        2.1185814347590455       0.56185025446649917      H 
 atom   2.8973257245823518       0.89608719060859210        1.8483104946107940      H 
 atom   5.2318697974071711        1.3259204613289912        1.7773787598556912      H 
 atom   5.6232657848042509        3.4988357382225344       0.39657747429916179      H 
 atom   2.5740693708639264        2.6674404518423973        2.4919590451428357      H 
 atom   4.5244543632785952        1.5598983062422609       0.41700581474413345      H 
 atom   6.9307133742380564        3.6107202224589150        2.7000127776907110      H 
 atom   6.0093207884190578        2.7608572122160480        2.5983078700050060      H 
 atom   3.0578012234103533        2.1697255737978911       0.78606947106484915      H 
