 # 34 angstroem -22012.6968635332
 lattice_vector   5.2148046055665107        0.0000000000000000        0.0000000000000000     
 lattice_vector   1.3711321612946112        3.6723628888229252        0.0000000000000000     
 lattice_vector   1.4332917176714111        1.5403141457479834        3.4018711002961619     
 atom   1.9656987343324479        2.8527752283668351        3.1472469140816015      S 
 atom   4.1586775167064092        2.4805752357898165        1.6981544961957804      S 
 atom   5.6798661576341063        3.5618347961579322       0.34484923487161495      H 
 atom   2.1169369702253276        1.7525444166868791        2.4139141382784812      H 
 atom   2.8814133356046701        2.1740416068057136        1.3519085563752187      H 
 atom   2.8186807527917916       0.71453361257471892       0.84517959640429252      H 
 atom   5.5483387608070105        2.4586289879886016       0.40099913494940886      H 
 atom   2.8984388192744586        4.5237049005229748        2.9639939691903492      H 
 atom   3.2050536908363116        3.5695980021856433       0.15141027853085864      H 
 atom   1.9601948520844754        1.3234981571479776        1.2508762491368832      H 
 atom   2.1742283314565212        3.5863373413473725        2.0325704604190191      H 
 atom   1.9484690141123746        2.6218087625431541        1.2011822860061822E-002 H 
 atom   5.3758256432658378        2.9762307799689527        1.9206914898449818      H 
 atom  0.46608853408778567       0.54510876394538987       0.85791729084056312      H 
 atom   6.0593196105709506        3.6555321703753401        1.0708076530940587      H 
 atom   3.5538619464377219       0.58561879927746940       0.65804511578232372      H 
 atom   4.2211868220471578        2.9057458994758472       0.42695284241736470      H 
 atom   4.9677178543851817        3.5838168885287698        3.1400263261590911      H 
 atom   4.4377415917848015        4.6910321685568936        2.5377769859752406      H 
 atom   5.7069223711675985        1.5151910343165451        2.6098636484582389      H 
 atom   6.3161935787558567        2.2665942128022669        1.4560976759086670      H 
 atom   4.7440272882808356        4.4103900684803907        1.9055443005334349      H 
 atom   3.0606863295911588        4.3053440269204000        1.5353202791271430      H 
 atom   2.7126095318052457        3.3490146511314598       0.70708358508948776      H 
 atom   3.6563311735304018        3.6098198907421160        2.1711898039912780      H 
 atom   5.8283966110495120        2.7665349606742251        3.1644580567963305      H 
 atom   4.3187116806142631        1.8695955279562306        2.9087297917518673      H 
 atom   4.6187417324753177        1.2888985062113780        1.2844529900565531      H 
 atom   6.0478033387236563        4.3983313328318525        2.8284718444776296      H 
 atom   1.6584572166190743        2.7173367208271788        1.1439096466183600      H 
 atom   2.9348045492168753        1.8345599273391766       0.13354729894540512      H 
 atom   5.9933667388133935        4.0399549023182786        2.1003728749707125      H 
 atom   5.8514819375299369        1.3139781703148341        1.8879742418857905      H 
 atom   3.2826603473449421        2.8165399773415474        3.3878728867825258      H 
