 # 4 angstroem -10851.4959214061
 lattice_vector   3.0037787566944623        0.0000000000000000        0.0000000000000000     
 lattice_vector -0.25458960019519078        2.0170400163036906        0.0000000000000000     
 lattice_vector  0.25445637215654238      -0.19272961550649076        2.0079693504768872     
 atom  0.69359179004950866       0.65817655302623357        1.1238054451834443      H 
 atom  0.38871140006997518        1.7613516763520478        1.9528514123658023      H 
 atom   8.1436300246850640E-002   1.0411788608758910       0.77552540532622394      H 
 atom   1.8897282717097621        1.7622545141790453        1.9546444410590285      S 
