 # 4 angstroem -10850.9995085438
 lattice_vector   2.4591012669801802        0.0000000000000000        0.0000000000000000     
 lattice_vector  0.54665621915344031        2.0409808752878718        0.0000000000000000     
 lattice_vector  0.76597606680023977       0.47421690991178800        2.4458644956494848     
 atom   1.9281163650600410       0.45544850062995368        2.2481272217013171      H 
 atom   2.7213180827419619        1.0074140555256095        2.1397377366338390      H 
 atom   2.5599579612777155       0.93839667701596807       0.42902430157514071      H 
 atom   1.4755981916121734        1.8241889597915557        1.2123635884574329      S 
