 # 4 angstroem -10851.3998079906
 lattice_vector   2.6989013794333903        0.0000000000000000        0.0000000000000000     
 lattice_vector  0.89569067384813084        2.5459325900364855        0.0000000000000000     
 lattice_vector  0.76280551306807121       0.54011963187718137        1.8010232666594388     
 atom   2.7382720407734791        1.7103264958356144        1.1285564341298706      H 
 atom   3.6081469354386866        2.3261376958669158       0.57490955456623327      H 
 atom   3.3906183651018886        2.5202200400323305        1.7521240186035341      H 
 atom   1.6873578365462161        1.1143312125909244        1.7521441112551135      S 
