 # 4 angstroem -10851.9316211018
 lattice_vector   2.5272348757939436        0.0000000000000000        0.0000000000000000     
 lattice_vector  0.84216017386066822        2.3825896168911092        0.0000000000000000     
 lattice_vector -0.84234073639373341        1.1910193410203074        2.0636829882483201     
 atom   1.2050377505666769       0.86608061122875335       0.42725648091580504      H 
 atom   2.0521320779874981        1.4617868805478824        1.4554181340591639      H 
 atom   1.2049166886290057        2.6500610652010894        1.4574144003913676      H 
 atom   2.8910954531835431        2.0573617258161399       0.42406644599128052      S 
