 # 4 angstroem -10851.2910833913
 lattice_vector   2.5870343779639109        0.0000000000000000        0.0000000000000000     
 lattice_vector  0.76535804070227964        1.9239006093292284        0.0000000000000000     
 lattice_vector   1.0800231226536712       0.37013157720776663        2.4752906498940037     
 atom  0.80015520959049824       0.83124896136356718       0.29444512391969097      H 
 atom   1.8562145486960320        1.7063443525471504       0.33362518878142045      H 
 atom   3.5614085587608661       0.55502759188204553        2.1185801089883713      H 
 atom   2.6987018016517821        1.3671471424808963        1.3681537431098647      S 
