 # 4 angstroem -10851.388660308
 lattice_vector   2.6942807284242636        0.0000000000000000        0.0000000000000000     
 lattice_vector -0.77060077092698054        1.8863511187479298        0.0000000000000000     
 lattice_vector -0.95837317240832454       0.70921015969793211        2.4157551710713161     
 atom   2.2003527287265778       0.57299372587125130       0.59831855624715935      H 
 atom -0.54237389000960701        1.6561223187682379        6.1034995443462088E-002 H 
 atom   1.2492926906432376        1.2842285185830740       0.82103596607589135      H 
 atom  0.31087688880570219       0.90365521062047682        1.7209365754926991      S 
