 # 4 angstroem -10851.3055003596
 lattice_vector   2.5959963800468331        0.0000000000000000        0.0000000000000000     
 lattice_vector  0.87724081972432300        2.4432963685620472        0.0000000000000000     
 lattice_vector  0.65968051917887427       0.46409877075239803        1.9448667940877118     
 atom   2.0930989700939286        1.3015642001593735       0.29155620551943406      H 
 atom   1.0530424807322820       0.57057570934712976       0.54710221065064990      H 
 atom   1.8474881639441414        1.2509088324952635        1.3913370042173494      H 
 atom   3.6114711493946534        2.4290602058054165        1.3912096272453549      S 
