 # 4 angstroem -10851.9260758864
 lattice_vector   2.5273951469307159        0.0000000000000000        0.0000000000000000     
 lattice_vector  0.84227984541266676        2.3827583417099998        0.0000000000000000     
 lattice_vector  0.84320041275199187       -1.1919617172136481        2.0636166704378796     
 atom   2.3212326277033322        1.3625339429221104       0.92164318266274714      H 
 atom   2.3213211572216821      -0.42146863254540340        1.9520312255001593      H 
 atom  0.63800286912751736       0.17215675864910665       0.92112062934302374      H 
 atom   1.4785644711792507       0.76815314176759641        1.9531056871983019      S 
