 # 7 angstroem -10887.2415264257
 lattice_vector   2.9642365516267866        0.0000000000000000        0.0000000000000000     
 lattice_vector   1.3268805841060596        2.4601295593559747        0.0000000000000000     
 lattice_vector   1.4153200434544315       0.83532921110819636        2.3297785115011274     
 atom   2.4458183915850111        1.1515313381201699        2.1836916912498467      S 
 atom   2.2357861982329186        1.2664313290852465        8.2890325133880949E-002 H 
 atom   2.8993381631642126       0.90361979599400399       0.84380186438823024      H 
 atom   4.1357480227487153        1.8125754633442372       0.90210911007275207      H 
 atom   1.2256257751565003       0.77656759239476703        1.6565391650158017      H 
 atom   2.0918093753302114        2.3725141666741738        1.6348361543407630      H 
 atom   3.4621429767077343        2.1981028878727829       0.84013140058098468      H 
