 # 7 angstroem -10887.0612183913
 lattice_vector   3.0841104849822290        0.0000000000000000        0.0000000000000000     
 lattice_vector  0.65176660122684649        1.9447909487349415        0.0000000000000000     
 lattice_vector   1.1525350747442511       0.75902449684006756        2.7926580766528177     
 atom   3.0860358239892882       0.83494179514284961       0.76815581181230741      S 
 atom   2.7010882246996659        1.9250550283649037        2.3735028281584158      H 
 atom   1.2623603937809909       0.34389830625115958       0.40982162427946861      H 
 atom   1.8251087506184214        1.3251971528948678        1.1592965376741935      H 
 atom   4.2346977132182007        1.5776786761823964        2.1429363808314901      H 
 atom   2.2233197330231995        2.4307456599661639        1.9838977049768547      H 
 atom   3.1171181601933351       0.83460169335742096        2.1754187891662702      H 
