 # 7 angstroem -10887.2874407793
 lattice_vector   2.0087563536642716        0.0000000000000000        0.0000000000000000     
 lattice_vector  -1.0079429964925690        2.4974473284287821        0.0000000000000000     
 lattice_vector  -3.1792819534735068E-005  0.71754563726157983        3.3679254722743610     
 atom  0.54363488340914368        2.2598409257178904        1.7442443298588701      S 
 atom   1.5506099677376728       0.85814157127422852        2.5460568264776131      H 
 atom  0.54677004498169235        1.1639993015054255       0.94282213914020530      H 
 atom   1.5490790531893801       0.45582429565766741       0.54554147901304095      H 
 atom -0.46487582305415692        2.2967456514438185        3.8163341862125361E-002 H 
 atom  0.54852931808212690        1.5663386939992221        2.9432327714048072      H 
 atom -0.45532348914990312        1.5053680195820758        8.2500384885584296E-002 H 
