 # 7 angstroem -10887.2120630773
 lattice_vector   2.6482363117941805        0.0000000000000000        0.0000000000000000     
 lattice_vector  0.76081386541675999        1.8672873116905797        0.0000000000000000     
 lattice_vector -0.13355448569476716        6.5276982918094931E-002   3.4217145616056750     
 atom   2.0360632455906100       0.50760027586511824       0.93712247471403232      S 
 atom  0.13492870310844340       0.20016057061974427        3.3777023398375321      H 
 atom   1.9818363808193300        1.6345508803970668        2.6460343944048192      H 
 atom  0.18208880814597322       0.18546823372670257        2.0219196037224210      H 
 atom   1.1551675427354422       0.88134215894637391        1.9179532139279167      H 
 atom   1.1083491768920093       0.89596244184494844        3.2744763963511421      H 
 atom   2.7176309477812177        1.3136015518017106        2.6495960401531953      H 
