 # 7 angstroem -10887.2043344555
 lattice_vector   2.8007666490432546        0.0000000000000000        0.0000000000000000     
 lattice_vector  -1.3404856778344632        2.6696332225348711        0.0000000000000000     
 lattice_vector   1.0439642643305844      -0.90449585124643972        2.2563144777758088     
 atom  0.18764086580364692        1.5361889477656943        2.2322540162816589      S 
 atom   2.1322783303211956      -0.16791331696864595        1.5161995508537456      H 
 atom   3.2163836076840950      -0.39437849228824107        2.2057926751823493      H 
 atom   1.3392517511752282        1.4761463890167781       0.69248054899902178      H 
 atom  0.25607271455187131        1.7019914017608393        1.1729227884651010E-003 H 
 atom   1.0319080519825594       0.34663161209149318        1.0511499662287760      H 
 atom   2.4420495350964928       0.96053998568375043        1.1564339787467954      H 
