 # 7 angstroem -10886.9756795844
 lattice_vector   2.6542022742881568        0.0000000000000000        0.0000000000000000     
 lattice_vector -0.63834563589377946        1.9884545292746549        0.0000000000000000     
 lattice_vector   1.4311625104766768      -0.98436113259271674        3.1886414733599091     
 atom   2.3476925173425101      -0.19516737914370383        1.1125605578840629      S 
 atom   1.6043648678820894        6.0201606383946782E-002   2.9698618305521878      H 
 atom   2.8714227894918927      -0.32242587474930662        2.4260958220041018      H 
 atom  0.73185656911957020       0.44206424549280821       0.41453737700751303      H 
 atom  0.67024986661327823        1.1569337169261951        1.8115484740036951      H 
 atom   1.2252192077515034       0.55274594663422272        2.4442522704556406      H 
 atom   2.6119655379999283       0.93677987823514075        2.9888180021544977      H 
