 # 7 angstroem -10887.2141431453
 lattice_vector   2.9863515694260414        0.0000000000000000        0.0000000000000000     
 lattice_vector  -1.2557650161798999        2.5034356531147686        0.0000000000000000     
 lattice_vector  -1.2750735240951261       0.52639963373849197        2.2567658685535208     
 atom  0.87461468939181597        2.4475977793223485       0.80328330507488244      S 
 atom  0.97106628760640168       0.60691518946346712       0.82920926593705235      H 
 atom -0.67065281546111521        2.2269243412991888        1.9847467672308727      H 
 atom -0.58592585974275224       0.69146041764876809        1.8784447040558694      H 
 atom  0.28473721005336311        1.4740757729510074        1.5200629728178898      H 
 atom -0.95275886816998212        1.7845266197318226       0.77774931266776115      H 
 atom -0.26572824758724961       0.91759558663966989        8.7497695597139158E-002 H 
