 # 7 angstroem -10887.0656777978
 lattice_vector   2.5752973342652514        0.0000000000000000        0.0000000000000000     
 lattice_vector  0.17765640778223107        2.9650049249035959        0.0000000000000000     
 lattice_vector  0.67352922039400676       0.83162470355121776        2.2138937570966148     
 atom   1.7255428457134245        2.1913235202219572        1.8732993151695130      S 
 atom   2.7498030846490784        1.5802012157514722       0.78936747620901682      H 
 atom   2.6957659358947956        2.8584617374157477       0.47069481396960550      H 
 atom  0.84995888522923113        3.0302068888705675        1.0978398949818267      H 
 atom   1.7915610812935334       0.71313245187106389       0.61652468164813690      H 
 atom  0.85380133749498799        1.0419904225826533        1.7549976502913183      H 
 atom   2.4298268581801015        3.3153289182661903        2.0897208953935102      H 
