 # 7 angstroem -10887.2186849786
 lattice_vector   2.6491157684792332        0.0000000000000000        0.0000000000000000     
 lattice_vector  0.76047620603565280        1.8684094630431984        0.0000000000000000     
 lattice_vector -0.13059565773160778        6.2862307024022096E-002   3.4185201991354264     
 atom   2.0379033690781334       0.50781432260447157       0.93540440186394058      S 
 atom  0.13896439820457990       0.19741257851326965        3.3738470802069722      H 
 atom   1.9856761715372215        1.6338052446439946        2.6431791595818876      H 
 atom  0.18512864204385004       0.18212005881898530        2.0186769453587119      H 
 atom   1.1564411043359339       0.88008043725132745        1.9173655405890890      H 
 atom   1.1106233605156417       0.89507928833836403        3.2721010811828246      H 
 atom   2.7203266595944182        1.3122362746068681        2.6457870545902789      H 
