 # 7 angstroem -10887.0661030676
 lattice_vector   2.0510327523302281        0.0000000000000000        0.0000000000000000     
 lattice_vector   1.0856365520456417        2.9189511755818178        0.0000000000000000     
 lattice_vector  0.97999916627313821       0.85432607477185152        2.7981110220747323     
 atom   1.9430684912103202       0.52175909654552899       0.25176820207221928      S 
 atom   1.7879288249307779        2.6814626061884321        1.8851482071175447      H 
 atom   2.9374573966339619        2.7316455515394575        2.6476685072542723      H 
 atom   2.1148958610549058        2.1286567536575425        1.4117096219893619      H 
 atom  0.96594802587058104        2.0848647017377488       0.64802720065701724      H 
 atom  0.93776952000424585        1.3372971163274356        1.6484196356378689      H 
 atom   1.8796035826190955       0.55462764068179937        1.6544773237704966      H 
