 # 7 angstroem -10887.0690963198
 lattice_vector   3.0845277123044439        0.0000000000000000        0.0000000000000000     
 lattice_vector  0.65082786544737914        1.9455304490166401        0.0000000000000000     
 lattice_vector   1.1506329908149509       0.75945079345002409        2.7924787573075873     
 atom   3.0707290639150608       0.84795252437447011       0.75616256668905324      S 
 atom   2.7137233692670275        1.9211458278005826        2.3871187474202284      H 
 atom   1.2436713464853653       0.34783086351382037       0.42716098044990930      H 
 atom   1.8061448807880154        1.3294009411962309        1.1781009439172452      H 
 atom   4.2426191930790838        1.5724669516213501        2.1219026036819022      H 
 atom   2.2358469480483909        2.4239237390950361        1.9954978502650420      H 
 atom   3.1247637253712397       0.83047367553405071        2.1551717251472966      H 
