 # 7 angstroem -10887.0594423946
 lattice_vector   2.4644734829473438        0.0000000000000000        0.0000000000000000     
 lattice_vector  0.68860511923194923        2.4491180389475931        0.0000000000000000     
 lattice_vector   1.0841706501201183       -7.8741392365659246E-002   2.7915032359223773     
 atom   1.9959877269586581        1.4374908998235365       0.22407602798738077      S 
 atom   1.1585392142962514       0.89365105227940578        1.1844852712579284      H 
 atom   2.3480385172709508       0.81021628995815842        2.0096735378936192      H 
 atom   2.7608423241242197        2.0977051829203330        1.2334983646269182      H 
 atom   3.7615416972367601        2.0396929823145462        1.9540725412060003      H 
 atom  0.43952802791596990       0.16185399258987535       0.40998814754140911      H 
 atom   1.4362829852615315       0.13424782298093813        1.9029411459727246      H 
