 # 7 angstroem -10887.2812170832
 lattice_vector   2.0079881454401245        0.0000000000000000        0.0000000000000000     
 lattice_vector  -1.0130240258048888        2.4990207151318029        0.0000000000000000     
 lattice_vector  -2.1399640570667598E-004  0.72069583876804222        3.3664372299372469     
 atom  0.53963674733637301        2.2627351995956038        1.7433887953105238      S 
 atom   1.5478555561743010       0.85922542840229865        2.5456011278412509      H 
 atom  0.54607714056978796        1.1672139895790112       0.94184924406362247      H 
 atom   1.5459991389037213       0.45656365237684088       0.54415631164265021      H 
 atom -0.47343181585210004        2.2974328542712161        3.7509627010784717E-002 H 
 atom  0.54799810896446466        1.5700436637239064        2.9425982750145590      H 
 atom -0.45437685767273600        1.5072914775320836        8.2651674176763779E-002 H 
