 # 7 angstroem -10887.0504251015
 lattice_vector   2.5026990386203609        0.0000000000000000        0.0000000000000000     
 lattice_vector -0.18775991202499787        3.0004870467560512        0.0000000000000000     
 lattice_vector  0.64411219196445724      -0.84209404294946100        2.2444855476640191     
 atom   2.5791654256191889       0.63084636009616779        1.5184715612071669      S 
 atom   1.7942073117580444       -6.6824604573832630E-002  0.58189983171339654      H 
 atom   1.8217927311259909        1.7784813656183058        1.4037631367158170      H 
 atom   1.0514618881231423        2.0963892705865024       0.73997396566621976      H 
 atom  0.97028633775047812       0.84930122318015622       0.34163529663237469      H 
 atom  0.82372790358221459      -0.52319787020656061        1.7189542084833278      H 
 atom  0.21712753086804115        2.2441170259306293       0.13954094460191022      H 
