 # 7 angstroem -10887.2928190164
 lattice_vector   2.6919313836074132        0.0000000000000000        0.0000000000000000     
 lattice_vector -0.75180495565914052        1.8635285295658193        0.0000000000000000     
 lattice_vector  0.66279100498329557       0.26729340614134767        3.3689522099059523     
 atom   1.0088739512131244        1.5618788699326578        1.9673175416047284      S 
 atom   1.4210866017169481       0.64391379911581614       0.26091811853123237      H 
 atom  0.68547218349167593       0.35008757533601609       0.30475272748829396      H 
 atom  -7.9603463231681312E-003   1.1548940084068726        1.1653819597534185      H 
 atom   1.6523835173058652        1.8220410476879552       0.76915638796005137      H 
 atom   2.0251819218233558        1.9709904076360520        2.7694784864891497      H 
 atom  0.36431547200573633        1.3047955357509680        3.1660304175561653      H 
