 # 7 angstroem -10887.2341128689
 lattice_vector   2.7951094709452073        0.0000000000000000        0.0000000000000000     
 lattice_vector  -1.3859897009795563        2.4801684533024289        0.0000000000000000     
 lattice_vector   1.3870613021659306      -0.89500869499917535        2.4508316339273719     
 atom   1.6997883086944812        1.1366353342223965        2.0757796040548588      S 
 atom   1.6963693377995213        1.6063119423804244       0.11839447168322344      H 
 atom   2.1784762370648809      -0.52092734772840854        1.4284185384499335      H 
 atom  0.29452591150359259       0.67713115683952974       0.45809472864138062      H 
 atom -0.18692024411270577        1.9375289537700051        1.4133578872631267      H 
 atom  0.31702382323301287       0.35188826647306976        1.1647922770898489      H 
 atom   1.7024530543314087       0.63315529387657976       0.57018262658790086      H 
