 # 7 angstroem -10887.0299432539
 lattice_vector   2.5071333472604724        0.0000000000000000        0.0000000000000000     
 lattice_vector -0.16252892532593177        2.9569429589481562        0.0000000000000000     
 lattice_vector  0.66965038847393243      -0.87801940500384734        2.2677971476532264     
 atom   2.5957228653982765       0.57783274598364365        1.5579170649934060      S 
 atom   1.8244155449645629       -2.6844774410296098E-002  0.55895029633170923      H 
 atom   1.8543322069246340        1.7157662683399877        1.3765125717533326      H 
 atom   1.0521967942813184        2.0589406663067393       0.72167773605765206      H 
 atom  0.94081696307003493       0.79870368267355685       0.40033026194188148      H 
 atom  0.92126207180002639      -0.56044012920097364        1.7356367949866147      H 
 atom  0.23686904266535042        2.2068499617990556       0.16630930787700782      H 
