 # 7 angstroem -10887.0615409142
 lattice_vector   2.0513587848492354        0.0000000000000000        0.0000000000000000     
 lattice_vector  -1.0857434492691069        2.9193424620450168        0.0000000000000000     
 lattice_vector  0.97870769568341942      -0.85238238330876948        2.7976867276947042     
 atom  0.64555597471844273        2.4921705261110629        8.3269708543623921E-002 S 
 atom  0.49768135953132692       0.37607633075665253        1.6852751477197438      H 
 atom   1.6454277624717801       0.28431034137788130        2.4422718399104357      H 
 atom   1.6741970008317089      -0.42389161517638496        1.4977623019151194      H 
 atom  0.82617023770057618       0.92699530627528526        1.2124454668758113      H 
 atom   1.7264661585102372       0.92794766461379352       0.44220185906544385      H 
 atom   1.6979953496844460        1.7130939357579515        1.4911137693604810      H 
