 # 7 angstroem -10887.0845550474
 lattice_vector   2.1049079963808395        0.0000000000000000        0.0000000000000000     
 lattice_vector -0.21078932533899924        2.0700105898128691        0.0000000000000000     
 lattice_vector -0.64931335093162301      -0.56776391179526164        3.8108281001242896     
 atom   1.4952377516406035        1.8130774110431309       0.84406404564055248      S 
 atom   1.0142823522609947       0.33123060381741748        2.3046875495398780      H 
 atom  0.42894764717483946       0.89446716617957200        2.1158931904627019      H 
 atom -0.56596932790581023       0.65639681269814454        3.1945147862262928      H 
 atom -0.31969319205788688        1.5624433416763222        2.2138316711389252      H 
 atom  0.55784368624471592        1.4943649582487157        3.2854676538025402      H 
 atom   1.9129823234996061E-002   9.2669405788931569E-002   3.3816277215322108      H 
