 # 7 angstroem -10887.2798308309
 lattice_vector   2.7959377241983234        0.0000000000000000        0.0000000000000000     
 lattice_vector  -1.3980048422692790        2.4196157992113707        0.0000000000000000     
 lattice_vector   1.3980867753051451      -0.80468262045813765        2.5154197274024579     
 atom   1.1889971739740584       0.37721726634109892        1.6724948977952065      S 
 atom  0.65860851234673545        1.3232654532875159       0.92874362641756691      H 
 atom   2.2743190068165058       0.36478340893737737       0.93030860637863100      H 
 atom   1.7200373778197224      -0.56824671871821786        2.4161611265028040      H 
 atom   2.8998108312098436       0.39061131382454661        2.4152064937810933      H 
 atom   1.7419268510933335        1.3112289036425637        2.4147517045151203      H 
 atom   2.0340717247558699        1.8636969010353845       0.92907997462131198      H 
