 # 7 angstroem -10887.0782528073
 lattice_vector   2.1048500133879373        0.0000000000000000        0.0000000000000000     
 lattice_vector -0.21068740112203863        2.0700145534714784        0.0000000000000000     
 lattice_vector -0.64721803589481020      -0.56686293753304096        3.8099353659840713     
 atom   1.4957691977923144        1.8137916219605914       0.84354725764909988      S 
 atom   1.0138434642466918       0.33257709185693729        2.3059237041019141      H 
 atom  0.42916377212763068       0.89557999420468537        2.1131494509257358      H 
 atom -0.56245465872492861       0.65660254598476175        3.1915603320408410      H 
 atom -0.31972274033973141        1.5635833451363794        2.2130817497020701      H 
 atom  0.56125833149454518        1.4945750790397183        3.2842998285513927      H 
 atom   2.2349649620110830E-002   9.3722538182035312E-002   3.3825944827689645      H 
