 # 8 angstroem -86524.2522474931
 lattice_vector   6.2863957067733871        0.0000000000000000        0.0000000000000000     
 lattice_vector   9.3722258300531886E-004   4.6964382580487030        0.0000000000000000     
 lattice_vector  -1.9505901527488791E-004  -6.6637390957387299E-002   2.0671927327690054     
 atom  0.85105288029354353       0.73678500053748963        1.9678954279359275      S 
 atom   3.9945223893531439        3.1181359534000430       0.93472691200351987      S 
 atom   2.4229963610537508        1.9276280384461089        1.4504191382898626      S 
 atom  0.85128288120375772        3.1184511313517240       0.93401387518936185      S 
 atom   5.5662358792032061        1.9273128704943514        1.4511321751172803      S 
 atom   3.9942499509166987       0.73649645875475744        1.9686400251251004      S 
 atom   5.5664658801106937        4.3089789213506258       0.41725059225884409      S 
 atom   2.4232688094875399        4.3092674631333576       0.41650599506967134      S 
