 # 8 angstroem -86523.7243124296
 lattice_vector   6.4099588607697218        0.0000000000000000        0.0000000000000000     
 lattice_vector  -3.7828211000108226E-002   3.8626594429119039        0.0000000000000000     
 lattice_vector  -1.0726204449855146E-002  0.60017193104230881        2.4651597709292545     
 atom   1.6828990344842552       0.97295314540083266        1.2267705554905346      S 
 atom   4.0793827503542248        1.5312859834983410        1.5351632356098508      S 
 atom  0.86059906570112976        3.1626236178558162       0.30265900975314430      S 
 atom   4.8629865860768842        3.2043212075730558        2.4592646130146578      S 
 atom   6.7921129175153278E-002   2.0885389415447890        1.8429712436084236      S 
 atom   3.2592738363129832        3.7197224958603505       0.61022820647686882      S 
 atom   5.6942096384523344       0.41561681458846955       0.91893012667630047      S 
 atom   2.4644615948968118        2.6473049910428359        2.1517299379794794      S 
