 # 8 angstroem -86523.6730427818
 lattice_vector   3.2304534798370503        0.0000000000000000        0.0000000000000000     
 lattice_vector   1.6148575318980301        4.9843609664445587        0.0000000000000000     
 lattice_vector  -2.4286267768962640E-005  0.58724183940719965        3.8063948654813013     
 atom   2.7369653891496952        4.7041615556926253        5.9810617833661685E-002 S 
 atom   4.3520804406345714        4.9977712411940365        1.9628589279770263      S 
 atom   1.1218689595870388        2.6525255859970800        2.9145036093113914      S 
 atom   2.7372110081404246        2.3586116587276438        1.0110981375164856      S 
 atom   2.7369596456086041        3.8250843826557444        2.4386076389296907      S 
 atom   1.1218545322122147        3.5314255028535206       0.53549886502805044      S 
 atom   2.7371746374726116        1.4796326898563203        3.3901165539396465      S 
 atom   1.1220713106965208        1.1861592415166633        1.4870802870168338      S 
