 # 8 angstroem -86523.6233101344
 lattice_vector   3.8097983403662021        0.0000000000000000        0.0000000000000000     
 lattice_vector  -1.0655135299246716        4.9004051347721811        0.0000000000000000     
 lattice_vector  -2.1160271070560954        1.1326327693852372        3.2796235790829757     
 atom -0.49643788673841127        4.5587124467885021       0.10830777107160931      S 
 atom  0.62084370096889008        1.7327613972468334        2.5681246922892806      S 
 atom -0.73406861859060879        4.6545675985004218        2.1576306098539906      S 
 atom  -1.0213463911001790        2.6747886114046193        1.7478820532179755      S 
 atom   2.4989294940825664       0.69589102581469031        1.3379243246789791      S 
 atom   1.1458053239633412        3.6166782717960353       0.92837037039246384      S 
 atom  0.90815718672422674        3.7125355326131566        2.9775728689231360      S 
 atom  0.85671925440513008        1.6379111022111972       0.51756198845924928      S 
