 # 8 angstroem -86524.2378852014
 lattice_vector   4.6363416743994907        0.0000000000000000        0.0000000000000000     
 lattice_vector   1.2929330785324440E-002   6.4085112518588963        0.0000000000000000     
 lattice_vector  -1.8906897934512570E-002   1.0643076419330222E-003   2.0605226122006357     
 atom   1.6383491444489238       0.44743874564184938       0.70133414071392020      S 
 atom   3.9533539544956073        3.6522832234531641        1.7310046262675132      S 
 atom   1.6446816795020840        3.6516385112389820       0.70096481302404767      S 
 atom  0.49319710814740447        5.2535880429026021       0.18265282972766375      S 
 atom  0.48688133035964198        2.0494063190633098       0.18300516804054992      S 
 atom   2.7955539245931540        2.0500510416033784        1.2130448395829001      S 
 atom   3.9470381664920744       0.44810166960103837        1.7313569645379541      S 
 atom   2.8018864593773549        5.2542509771946619        1.2126755017976782      S 
