 # 8 angstroem -86523.63926198
 lattice_vector   3.2872440494699759        0.0000000000000000        0.0000000000000000     
 lattice_vector  -1.6112501896547735E-004   4.9017039403933573        0.0000000000000000     
 lattice_vector  -3.2946771705122591E-004   1.6238779203076295        3.7880716746641343     
 atom   9.0569905083566174E-002   5.9792835406531397        2.9803566132686949      S 
 atom   9.0370842150781644E-002   5.1668087894431389        1.0862549402617041      S 
 atom   9.0807770676788843E-002   3.5287891606067290        2.9809338281039190      S 
 atom   1.7346148214591000        2.3039713244193814        2.9823158283515534      S 
 atom   1.7343761827133304        4.7544610236372424        2.9817437222812719      S 
 atom   1.7341778929649310        3.9419910332262167        1.0876370605290451      S 
 atom   9.0609480917238902E-002   2.7163191501957069        1.0868271663467646      S 
 atom   1.7344157685318893        1.4914965832038027        1.0882141553480882      S 
