 # 8 angstroem -86523.5267745921
 lattice_vector   3.8907512281670105        0.0000000000000000        0.0000000000000000     
 lattice_vector   1.0482897045910378        4.7800359321300521        0.0000000000000000     
 lattice_vector   2.2019599964748262        1.2231761764110671        3.2828541385643697     
 atom   3.6049353005593066       0.28312301180719818       0.72177655598633916      S 
 atom   3.5726353145777892        2.3954511607705737        3.1837086052969896      S 
 atom   2.9964606755774890        4.1740134472919719        1.5427569743754868      S 
 atom   4.1297679681685810        2.6734920835344673       0.72222988793497311      S 
 atom   4.7059425768613456       0.89492978701871528        2.3631814590102884      S 
 atom   4.0974675241354550        4.7858207623770692        3.1841623296952739      S 
 atom   5.2303283795194249        3.2851449324236510        2.3638193719633196      S 
 atom   2.4720744753798032        1.7837988517581356        1.5421195535647467      S 
