 # 8 angstroem -86524.2442467426
 lattice_vector   4.5310761506431625        0.0000000000000000        0.0000000000000000     
 lattice_vector  -4.9322676845211914E-004   6.5478784502051397        0.0000000000000000     
 lattice_vector  -4.8131791118726383E-002  -1.0267126346883279E-004   2.0615958741446758     
 atom   1.5856069802724808       0.46477329438763232       0.69887014157150340      S 
 atom   3.8269261148139653        3.7387825869916016        1.7297682927092006      S 
 atom   1.5854555696865218        3.7387250275756063       0.69872712980414975      S 
 atom  0.46460798078874510        5.3757527106588139       0.18263995859443169      S 
 atom  0.46477013481192142        2.1018058839651421       0.18277693136597328      S 
 atom   2.7062407599532405        2.1018634433121730        1.2138180843829025      S 
 atom   3.8270882688067607       0.46483573029796749        1.7299052654441416      S 
 atom   2.7060893393470424        5.3758151565103161        1.2136750725771654      S 
