 # 23 angstroem -44506.4783007805
 lattice_vector   2.5515448870661532        0.0000000000000000        0.0000000000000000     
 lattice_vector  -1.7155067789845686E-003   4.1977979558000982        0.0000000000000000     
 lattice_vector  -1.0477752056520460        2.0953019764732104        5.9766136888639778     
 atom  -3.4808165608519112E-002   1.1691826304457875        2.2671576847217887      C 
 atom   1.9437901941560873        3.2684755256125553        1.0948253986797729      S 
 atom   1.1784124880812371E-002   3.2646784779995417        5.9349170284268613      S 
 atom  0.85970650946548521        3.2680517940808600        3.6055869363650368      S 
 atom   1.6958467070488430        5.3659295066508337        4.7776614115975464      S 
 atom  0.82030930578063144        4.2999600124077029        5.2864650848306907      H 
 atom   2.0098874329913192        1.1755382053543946        1.3423724578660781      H 
 atom -0.79220163507996399        3.2687286617016817        4.7549250343522402      H 
 atom   1.1590123869403057        2.3172141085125477        1.5439983699584157      H 
 atom  0.82319311034124221        2.2319263609632762        5.2849489296254442      H 
 atom  0.57502770157667682        1.9881779068592780        2.3956960118015118      H 
 atom  0.10900460118992296        3.2659935488321974        2.3448064487176805      H 
 atom   1.1628765812744501        4.2225382596992391        1.5442573032561109      H 
 atom  -2.9263550183356975E-002   4.3689794002195415        4.0790997144443883      H 
 atom   1.0752580696045215        3.2712281195323230        7.6930045847269863E-003 H 
 atom  0.15943414494758740        2.1892066683780866       0.55715973411891806      H 
 atom  -2.9284079024851879E-002   2.1646943481845189        4.0792456553224135      H 
 atom   1.6760767300045609        2.4176138241154979        2.9847110483062211      H 
 atom  0.84947495958553909        5.3676682612751474        3.7301115510997640      H 
 atom  0.15798016726805117        4.3496550499072404       0.56127861835538906      H 
 atom  0.56656462093017979        4.5421962978337183        2.3902917304682334      H 
 atom   1.7697165446547367        1.1671331520753603        2.9844306628718966      H 
 atom   1.6738359943105179        4.1182753684274509        2.9829863494248139      H 
