 # 19 angstroem -44457.4958486986
 lattice_vector   2.4819156423601108        0.0000000000000000        0.0000000000000000     
 lattice_vector  -3.8323543816092397E-002   4.0186240217370885        0.0000000000000000     
 lattice_vector -0.82495814962749914       -1.9533768524168518        5.7857227501491302     
 atom   1.0691056020917984        2.1498484637081412        5.1587907630948964      C 
 atom  0.25043499860980789       0.21209633377268700        3.9836930135763180      S 
 atom   1.8978292742313108        2.0921284401866873        2.9116961644887747      S 
 atom  0.31428482600349206        2.1331446387561921       0.48366082125012266      S 
 atom   1.0755831124111495       0.12177608117058313        1.6154361604194099      S 
 atom  0.17824067642754060        3.0885175059030963        2.3034002040848405      H 
 atom  0.47492626311335617        2.1516663658741919        4.1730575407002526      H 
 atom   1.1251080115577541        2.1628603795803305        1.7222811088505676      H 
 atom -0.48343383360339220      -0.82877466721643467        4.5274581763112574      H 
 atom  0.31120185117011412        1.1395524068675411        2.2962246551661578      H 
 atom  0.49984232059252220       -1.0136573285891028        5.5012566588785266      H 
 atom   1.1014260539370979       0.17837399383396385        5.1451131388859137      H 
 atom   1.7753870552854840        1.4373132015429917        4.6335975282321744      H 
 atom   1.9719824846828820        3.1038481711809029        1.0361369123062010      H 
 atom   1.8459704311992138       0.15381337990839858        2.8039691397494626      H 
 atom   1.0604187774045688      -0.81607971247270328        3.4508732245442202      H 
 atom   1.9468122379923911        1.1570205538984248        1.0503788288562541      H 
 atom  0.19823846015796046       0.20569530966733982       0.19356643963706935      H 
 atom  0.42585061158244381        1.3972152182060540        5.5961830317063246      H 
