 # 18 angstroem -33642.493275937
 lattice_vector   2.8755655752190776        0.0000000000000000        0.0000000000000000     
 lattice_vector   1.5384556255515885E-002   4.0170020553871888        0.0000000000000000     
 lattice_vector  -1.4242700927604441       -1.9772368119498511        4.3599826234226242     
 atom   1.5043163966190773        2.8142791509676170       0.51602427897351555      C 
 atom  0.17732158926036531      -0.12737310815767952        2.5459245936380093      S 
 atom  -1.2582627159742723       -1.2364715159172182        4.1583546581248827      S 
 atom  0.16190867635313849        1.9053472258828501        2.4059664629031974      S 
 atom  0.19014871216807525       -1.2397378416084051        4.1309934668263200      H 
 atom  0.48997798360936040        2.9076511685637270       0.71389805488701474      H 
 atom   1.5681146704102686       0.13339709154664223        3.9584421798291696      H 
 atom  0.22437229418618124        1.1974648428028931        3.9152918738942826      H 
 atom   2.0229027461745135        3.3831589185456989        1.1978401941221035      H 
 atom  0.16705941474652902        1.5704410136548577        1.1029639399882452      H 
 atom   1.7347301013335505        1.8223541853735046       0.63380260126859067      H 
 atom   1.5889319447870642        2.1333167854520370        2.2743550029372046      H 
 atom   1.5568107381622738        1.3787521285912401        3.6992789730546582      H 
 atom   1.5870520748035526      -0.44475423466102715        2.4286101595427136      H 
 atom  0.20502340080327586       0.10248711302235160        1.1959246030252539      H 
 atom   1.5357140813344323       0.60112279520334722        1.0654230101693689      H 
 atom   1.6542969901816820       0.91987713276997174        1.7150242596611220      H 
 atom   1.6482110468352640       0.75424432548493769        3.1687665056482093      H 
