 # 16 angstroem -12011.72303508
 lattice_vector   4.7370153349289605        0.0000000000000000        0.0000000000000000     
 lattice_vector   2.4773626795875656E-004   2.7738931758819647        0.0000000000000000     
 lattice_vector  -2.3968472836895051E-004  -3.3570293431549429E-003   2.6054337966553471     
 atom   3.0015386320020911        8.4564111085415727E-002   1.7757578558174860      C 
 atom   3.0003291314735505        2.7675609580035530       0.74776826592213352      H 
 atom   3.0016036537432167        1.0926330751091684        2.0108437987385765      H 
 atom   2.1556590754240554        2.3614659430711971        2.1155918029168777      H 
 atom   3.5978618850043889        1.2653317721953754       0.56421537944939704      H 
 atom  0.63295957490496679       0.70878898450401651        2.4715008669241159      S 
 atom   4.4430358391844909       0.18240135563619017       0.64308638880120139      H 
 atom   4.0513105257643387        1.8046738749364801       0.71013870552956948      H 
 atom  0.63267605460785514        1.7807389432142520       0.66547561643887254      H 
 atom   1.9506033348669019        1.8034660182487896       0.71217332332584848      H 
 atom   1.5596959613700339       0.18212377745504690       0.64352447461780060      H 
 atom   2.4062829447212808        1.2669027745474100       0.56290739895137809      H 
 atom   3.8483628896699011        2.3612531849859297        2.1138083005652470      H 
 atom  0.63298000923820930        2.4084037435896124        1.6953156750781551      H 
 atom   1.5763696300190688        1.2665220667811650        1.7642980791576270      H 
 atom   4.4267103787027624        1.2662848121655890        1.7638033316905768      H 
