 # 22 angstroem -44494.7591258044
 lattice_vector   2.5647090815300682        0.0000000000000000        0.0000000000000000     
 lattice_vector  0.73585836792538961        6.3171494785353550        0.0000000000000000     
 lattice_vector  -6.1625366054967570E-004   1.3129118666448394        3.8554327132113384     
 atom   1.3408240845519437        2.0487561717659668        1.3095808336192551      C 
 atom   1.1873749624747243        5.9495196681400939        2.1323395680187347      S 
 atom   1.9737895931545624        4.2698098495641448       0.55364469316615905      S 
 atom   2.1049929158021845        1.5295218720826127        3.6378866239765073      S 
 atom   2.8867185437490943        3.7278883552324702        2.8890484395317957      S 
 atom  0.33063725437791291        2.2824574482338496        1.2303385421093751      H 
 atom   1.0894865240356488        5.4721410729355595       0.14393138573252448      H 
 atom   1.1566987875369676        4.5935132697853174        3.6455840776910615      H 
 atom   1.3104623390656365        2.6250780790026447        3.2647791921897396      H 
 atom   1.1573060474574444        3.9516051794798965        1.7612664589338645      H 
 atom   2.0642818063752868        6.2756181188178601       0.93873386065657394      H 
 atom  0.33083510661029664        1.7746401750684035        2.5879080059255242      H 
 atom   2.0586509980885772        4.8172386332545498        2.5208034416162195      H 
 atom   2.8609742955108741        5.1495224869485705        1.3339332025337833      H 
 atom   2.0635828523851520        6.9365559437857334        2.8791497404104329      H 
 atom   1.8311239760475058        2.1530679813994671       0.37909279401593665      H 
 atom   1.8312288058252584        2.6990931017338236        1.9830956622765687      H 
 atom  0.33044050928383262        1.0519119668992143       0.46518806564117582      H 
 atom   2.5316677893912272       0.79548133519712194        1.7372711021609555      H 
 atom   2.8623812000351108        5.8045413073561232        3.2542123856720364      H 
 atom   2.8478117325260701        3.3444019706900221       0.86819980960291920      H 
 atom   1.4423529305890730        1.0697347767922394        1.6428226656925378      H 
