 # 21 angstroem -44482.7099414295
 lattice_vector   2.5282619864633817        0.0000000000000000        0.0000000000000000     
 lattice_vector  -1.5769355891522656E-004   4.0721775347874347        0.0000000000000000     
 lattice_vector -0.83691317435671886       -2.0362971177045006        5.9214361928402841     
 atom   1.3648672249653884        1.8932839225770945        4.9398055695186125      C 
 atom  0.44171267122515551      -0.14290137016338947        3.9211240923981898      S 
 atom -0.38046514732469700        1.8931880419878699        2.7646188817660784      S 
 atom  0.47953273610350927        1.8942187155532568       0.34271389506721112      S 
 atom   1.2977893443120720      -0.14220260945957905        1.5817784195572500      S 
 atom -0.34784800195855714      -0.14265099790760494        2.7787271147716273      H 
 atom  0.38601955842889940       -1.0595266851320155        5.6155199611334750      H 
 atom  0.42508406537492716        2.8891034140066449        2.0852562096005243      H 
 atom   1.4001858272240850      -0.14379903714277903        5.0959706397955253      H 
 atom   1.3520576459670726        1.8946950746772955        1.5622777430637966      H 
 atom -0.55231894009046156        1.0786414421288684        4.6851241264745633      H 
 atom  0.38661088164622709       0.77481734928450774        5.6153212597219255      H 
 atom   1.2338113402004098       0.85097049475138720        3.3625340874142942      H 
 atom   2.1478958149151244        2.9183365966565731       0.89942879463904812      H 
 atom   1.2342893418916592       -1.1363810673229324        3.3621001543556548      H 
 atom  0.54675238406063131        1.8932785389281659        4.2857518554813749      H 
 atom   2.1476108519549180       0.87025901415246076       0.89949731542729572      H 
 atom   2.0001917814919006        3.9308505201837276        2.9515858409700627E-002 H 
 atom  0.67369803315954213        3.9302272918402128       0.40525349384407633      H 
 atom  0.42537995437377024       0.89814055259198644        2.0849410942406248      H 
 atom -0.55189222425794748       -1.3645308402091019        4.6846486351701166      H 
