 # 13 angstroem -11975.7101889255
 lattice_vector   2.7944796638067664        0.0000000000000000        0.0000000000000000     
 lattice_vector  -2.8030232256307835E-002   2.8349526468642186        0.0000000000000000     
 lattice_vector  -1.3751440126432488        2.0137528310631220E-002   3.7737469897045499     
 atom -0.98643180112208673        2.2206684035917732        3.5959323507212604      C 
 atom   1.6033735517892027        2.0740637131944828        1.3923527600387604      H 
 atom  0.30226435814186814       0.60114644935923545        1.2058216023923394      H 
 atom  0.21199186017523236        2.4410761926154931        2.2839480248638657      H 
 atom  0.28120959207334145        1.8307745333306067        1.9102469725953843      H 
 atom   1.6802181283952935       0.63959354383676859        1.4546686453038489      S 
 atom  -2.7320429165798091E-002   1.8993475832461981       0.71084532983827242      H 
 atom   1.3621701818631786        1.7867189538412518        2.7712306713501471      H 
 atom   1.7735997267119132       0.72525104407763807       0.13574439615743261      H 
 atom   3.8199108679710790E-002   2.0647295738820790        3.6362539429021057      H 
 atom  -1.0740829211897243       0.41927529157579196        3.5453430378163322      H 
 atom  0.63136790867466652       0.63890366815974797        2.8278687129262692      H 
 atom -0.11660832472715553       0.87419814725227407        2.7301765949560344      H 
