 # 18 angstroem -12035.2296726507
 lattice_vector   2.6910460347708769        0.0000000000000000        0.0000000000000000     
 lattice_vector  -1.3505066317428480        3.5056761998879518        0.0000000000000000     
 lattice_vector   3.7606686238049615E-002 -0.97399776342390243        4.0008929339411790     
 atom   1.6730201174634796        1.2772204464901284        3.3680297584286421      H 
 atom  0.60441086991658699        2.9778586661413273        1.5282318008878153      H 
 atom  0.59181568162482245        1.5272387272981076       0.64324793033966443      H 
 atom -0.45435082343751398        2.1435723910294517        1.1690287674338853      H 
 atom  0.77512664160745581        2.2881396164071264        1.7788817055325854      H 
 atom   1.7832251258692025      -0.44883040202855923        2.9545070935543749      H 
 atom  0.60521248331359412       -5.1168072705781435E-002   1.0454850311983097      H 
 atom -0.34258723337095176        1.9894130848069977        2.5050425614901148      H 
 atom -0.87949296974512525        2.4930789075917197        2.3969803491667783      H 
 atom   1.9940829434296234       0.93319853451183954        1.7966056435250326      H 
 atom -0.41836809718314366       0.82966054179824211        3.4478381617286145      H 
 atom  0.26013402397932689        2.7100925933208675        4.6864140023054293E-002 H 
 atom   1.8572317154522811       0.81823135381360024       0.58187370476929179      H 
 atom  0.43967506248221894      -0.92867138309858166        3.7982355988831156      H 
 atom  0.72482872671542065       0.45762658569195680        3.9102358904839010      H 
 atom   1.7118403314173369        2.1833966280697394       0.65081186353159504      H 
 atom  0.67648169018699733       0.63091366847001062        2.1593027336831310      S 
 atom   2.0948115749893690      -0.86011480107674143        3.8602008221760249      C 
