 # 19 angstroem -33654.8060230734
 lattice_vector   2.9257617644008564        0.0000000000000000        0.0000000000000000     
 lattice_vector   1.1124157851843777E-002   4.1759053408780344        0.0000000000000000     
 lattice_vector   1.4573585752032672       -2.0881826816339744        4.2175501892616358     
 atom   1.7190965816413950        1.9037177517494228       0.94957312596962984      C 
 atom   3.0234819202331309        1.9396681476082591        3.0031467519038135      S 
 atom   1.5555077069907874      -0.14890444638200939        3.1135769966141549      S 
 atom   3.0875046867948002      -0.16031493026442520       0.94946349831113941      S 
 atom   1.1520787868093458        2.2579260977398903       0.15295403936269311      H 
 atom   1.7270395473517206       -1.0271748669228558        2.1446363253483680      H 
 atom   1.5535674946046727        1.9550029136632763        3.0713366157325059      H 
 atom   1.6020252879450119       -1.1938196917305663        4.1695793129503276      H 
 atom   1.1532759109148707        2.2557636311801641        1.7479170525135996      H 
 atom   3.0758146133168855        3.0327984261888816        1.9855612729771905      H 
 atom   3.0700033451338671       0.89395423982638367        1.9477104302439323      H 
 atom   3.0639976458653670       -1.2744633734188160        3.9107948439102000      H 
 atom   1.5444860775060210       0.87301262752702524       0.94914204941528579      H 
 atom   3.0111914825114101      -0.13195765036154816        3.0455787193110231      H 
 atom   1.6152980537066475      -0.36649015067426738       0.94937731286200777      H 
 atom   1.6055136917020230       0.81263807746119809        2.2057440231271732      H 
 atom   2.7434266879042037        2.0543076312607380       0.94957314470972187      H 
 atom   1.6058970490834086       0.94471305843589248        4.1305306176146184      H 
 atom   3.1951890215683734        1.0604674767853921        3.9709910954878307      H 
