 # 17 angstroem -12023.0215364825
 lattice_vector   2.6693695538855668        0.0000000000000000        0.0000000000000000     
 lattice_vector   1.2836035587923607        3.6577788321031979        0.0000000000000000     
 lattice_vector   1.1579911804438432       0.52003122846909688        3.6749000546340409     
 atom   3.4781216043451759        3.7510505987828706        2.7606235125341714      H 
 atom   2.4532575855197405        2.9799195180359406        3.3309883420705964      H 
 atom   2.0431083445629010        1.0572974459739477        1.0468602997894778      H 
 atom   2.5468716933690159        3.1162466481564528        6.1830485761198262E-002 H 
 atom   2.4765687227890809        2.0122819364435713       0.67698331382868748      H 
 atom  0.90340485754560307       0.96248312338972575       0.34305897054646339      H 
 atom   3.6610074474242666        2.2264343874901464        2.9527805225188719      H 
 atom   3.4868487472497187        1.0682973108368703        1.6856455618116895      H 
 atom   3.2496479174711923       0.71425082185369126        3.2862915130700170      H 
 atom   1.0398591071050303       0.62333445280635247        2.7109511651097251      H 
 atom   3.4510200746534960        1.8419541426485093        1.5859878633609954      H 
 atom   2.1858009609676206        3.1732812673214172        1.8489353789841483      H 
 atom   1.7652972460296310        3.4169449602224957       0.31440480593526904      H 
 atom   1.8630995240458057        2.1133374534548315        1.1166879157354648      H 
 atom   2.4035012379549858        1.5722415442023081        2.3487291205868264      H 
 atom   3.5095701730126976        3.4464616241615222        1.4116082717365348      S 
 atom   1.9967659785549583        2.0722490463079888        3.1643993562735653      C 
