 # 14 angstroem -22791.3770857726
 lattice_vector   2.8989856800427698        0.0000000000000000        0.0000000000000000     
 lattice_vector   5.9360728835390106E-002   2.8969177984678041        0.0000000000000000     
 lattice_vector  -1.4249877264940203        1.4542801991466405        4.4999316305886508     
 atom  -1.2742350061722534        2.1509868055779156        4.4332799659878086      C 
 atom   7.1489879065550918E-002   3.4636561525030825        2.9845802414256104      S 
 atom   1.4887942837678569        2.0128091333812508        1.3859072091628746      S 
 atom   7.6210517457955887E-002  0.64952566298785475        1.6842930346613134      H 
 atom   1.5745139615586676        2.0738957082817024        2.6868367925634860      H 
 atom   3.3590093658730572E-002   2.0168940468218075        2.9578954935193913      H 
 atom   1.1273136125510204        1.6824633414086092        3.6504609370245547      H 
 atom  0.11509770207390944        3.4926206077180768        4.4349209636281399      H 
 atom -0.25975029245346909        1.9602018889298971        4.4330582164105721      H 
 atom   1.4751925353008142        3.1726957314927766        4.4313150008012343      H 
 atom   1.5206195488536347        3.4500396829096194        2.9596228914642615      H 
 atom   3.7776743669281167E-002   2.0149620968511393        1.3944052084831522      H 
 atom   1.4503972995811882       0.56329866833943598        1.4076717105985936      H 
 atom   2.6189454784089419        3.1266993376463548       0.72126801076621483      H 
