 # 21 angstroem -12071.2406023627
 lattice_vector   5.6194253939947503        0.0000000000000000        0.0000000000000000     
 lattice_vector -0.70706382600174456        2.7541438958069451        0.0000000000000000     
 lattice_vector   9.3239921119319443E-003  -4.3413528444599184E-002   2.7419690609293412     
 atom   1.4109851150128419       0.41503188409713498       0.73455684095835960      H 
 atom   5.0303225213498450        1.2744524327466213        2.2461726831750366      H 
 atom   2.5719122631310127       0.39854773108593827       0.63108451891442852      H 
 atom   3.9079640804917641        1.5653611605333537       0.70739572006535056      H 
 atom   3.4130027803790837       0.68178187583326821        2.1956552193253902      H 
 atom   1.7048073341726755       0.80405203187149110        2.0412375601879780      H 
 atom   3.4959918474420668        3.9354631037970399E-002  0.68518951273449757      H 
 atom  -6.4311473001160774E-002   1.5517847217433198       0.68371374365237847      H 
 atom   3.6676268419243221        2.3582123689288905        2.3927965673098934      H 
 atom   2.4441938529601823        1.1416808054745216       0.82340418701664442      H 
 atom  0.31579937875826181       0.19150455308698647        2.0597293129595164      H 
 atom   1.3607279221391211        1.9430881589774909       0.47537868186293680      H 
 atom   4.3638724937027646       -4.0989924098100795E-002   1.7334995753999480      H 
 atom   2.9691842136235485        1.9356312247436078       0.68906877519141541      H 
 atom   4.1570121991105511       0.78724705217424029       0.62363203046662796      H 
 atom  0.46583245755678010        1.9083166271199659        1.8315395183210887      H 
 atom  0.12490734493340395       0.13073887440560888       0.68254510923022738      S 
 atom   1.4214884779727877        1.7882786239226003        2.1891941642705066      C 
 atom   3.0561931510029496        1.2963723303110906        2.0446506119591601      H 
 atom   2.0820014419008062        2.4917249837403448        1.7978133908656830      H 
 atom   4.4810266091052400        1.4260990937527056        1.8144421430314690      H 
