 # 15 angstroem -22803.2302159591
 lattice_vector   2.6352925712235815        0.0000000000000000        0.0000000000000000     
 lattice_vector  -6.2647485302748329E-002   4.0881294696761579        0.0000000000000000     
 lattice_vector   8.3774780718452249E-002  -1.9998541912751249        3.6346100902056788     
 atom  0.57366539404489658      -0.35501185056541551        3.5275853828664965      C 
 atom  0.41876821764164807      -0.38582557305000487        2.5006779538877661      H 
 atom  0.48207059217796061        2.6542006209540507        1.6758847198998399      H 
 atom   1.5637554734160182        1.5751204537568684        1.2846554466058335      H 
 atom   1.6009632157575153      -0.48835552822402167        3.6270301303022134      H 
 atom   1.5512196538654517      -0.25241812697407456       0.98773119082017291      S 
 atom  0.27553384846305468        2.5897237958636272       0.26220071408956008      H 
 atom   1.6517754145225996       0.78477629703205243        2.8962953207075448      H 
 atom   2.4123029474764039        1.6948411191781996        2.3104028534436698      S 
 atom  0.51604792236666164       0.72427118866428331        1.7531799465311950      H 
 atom   1.8292239467849745        2.5967915061926523       0.79684000139511479      H 
 atom  0.55669361005027884        1.7755431189282347        3.3885568015088796      H 
 atom   1.6623980120411161       -1.4743315777116688        2.7766803406449263      H 
 atom   1.9329220129196811      -0.35740027777137784        2.2194473049640675      H 
 atom   2.6344035060150390       0.85184904047686449       0.39860406191992304      H 
