 # 30 angstroem -33785.6496432155
 lattice_vector   4.2722307591683180        0.0000000000000000        0.0000000000000000     
 lattice_vector  -2.1664551815711270        5.9324876977535856        0.0000000000000000     
 lattice_vector  -2.8645463796861361E-002  0.61160108374315370        2.7260175753873397     
 atom   2.6568171542881953        1.4263318709895885        1.5834663833031175      C 
 atom   3.4218993965766566        2.1294527984431135        1.4372419940405321      H 
 atom  0.51997776563188713        5.2597169440941567        2.2232610496364686      H 
 atom  0.41934968780746679        1.2498571026612519        1.7840175513205845      H 
 atom -0.20411374610276911        3.8424874265583839        1.2174220274378258      H 
 atom   2.0514939605523566        3.8587498778420359        1.1534182099931678      S 
 atom -0.95580648797298695        3.2465853346074596        1.1312026547874123      H 
 atom   3.1129807816145978       0.77919508715015851        2.2513875566713466      H 
 atom   2.2438397026578154        2.4099693658973624       0.12999322647992737      H 
 atom   7.8388293868564038E-002   3.7034781950440725        2.6592038186850080      H 
 atom  0.18089485681753262        2.6751386483212176        1.4013252629198865      H 
 atom   2.2028904251747896        5.8916049407862676        2.4741581153253547      H 
 atom  -1.0178956133711836        5.8316139602796939        1.7966850401615271      H 
 atom   2.4854916569063876        1.0187516318043308       0.64087090261349178      H 
 atom -0.44843239871747398        1.9936528331784273        2.9896907511955916E-002 H 
 atom  0.46831425409360516        1.0004703304548519       0.40191189522126486      S 
 atom   1.8391156061077163        1.9590266520868655        1.9389063715802208      H 
 atom -0.88894892019488736        4.9678128241630697        2.5250692401310699      H 
 atom   3.0162742230482582        3.0741414892444925        2.6071909377521858      H 
 atom -0.65297822936173544        5.9445014479104961       0.39477610951974312      H 
 atom  0.42327217687473628        4.9946109270250272       0.84594676237058419      S 
 atom   1.6771485468552585       0.42493141177247629        1.9078985252156861      H 
 atom  -1.5029943522617146        4.9961251195754990       0.92539704677374834      H 
 atom  0.79797721625030549        3.7765335113243510        2.5651321182686400      H 
 atom   1.9014684842944829        4.4381052447311884        2.4744594241344919      H 
 atom  0.96299891408225113        2.7913063987912339        1.4078297793652619      H 
 atom -0.91823505877312317        4.2384121921095206        2.3756209674383535      H 
 atom   1.5188511110955820        6.0239631478162705       0.72752682509935562      H 
 atom   1.3594387831367523        2.0926409829121702       0.21158578835705147      H 
 atom   1.8076993903993039        5.6989623676459384        1.8866609986683192      H 
