 # 23 angstroem -22898.2491814992
 lattice_vector   3.7965542176165656        0.0000000000000000        0.0000000000000000     
 lattice_vector  0.95460280699560163        5.3983053843525042        0.0000000000000000     
 lattice_vector  0.95554688312713543      -0.16700750023746466        2.5270494401037875     
 atom   3.2933620607738772        4.5565997540438818       0.45597054540658849      C 
 atom   2.9714350998266643        2.9522818823347157        1.7747285448878400      H 
 atom   2.3044605497989887        1.5754652805563769       0.36248438946827355      H 
 atom   1.9766357093818552        1.8385190845577277        1.6983709730946870      H 
 atom   4.9557335381983609        4.7271233177438150        2.3200719584963556      H 
 atom   1.3706317352320558        3.1404791075513905       0.97691260850134465      S 
 atom   2.3736581296375263        4.9031615317815476        2.1871653485336200      H 
 atom   3.0066952324149163        2.4986093851726707       0.37914444421686655      H 
 atom   4.1576789126392537       0.81685638839553121        1.1974823878954530      S 
 atom   1.3388043716795157        4.4976747497878806        1.0203245434462909      H 
 atom   3.2788706805459076        1.8036329715169859        1.5811633703487336      H 
 atom   1.0975370335004397        1.8816212205632168       -8.8993786740161947E-003 H 
 atom   2.0818891910642763       0.95621901376105156       0.70383609576755035      H 
 atom   2.8537151517915693        3.6850919327182448       0.12637683614416229      H 
 atom   3.2980610799167094       0.75218024964403707        9.2350522222370404E-002 H 
 atom   2.5039486244811893        5.2085140262304215       0.52713531629895249      H 
 atom   2.7349939242303845       0.33459649643400974        1.7661533245962098      H 
 atom   2.0079558192004550       0.49225311411502759        1.9902344398258045      H 
 atom   3.6911608188316678        4.4467090258828295        1.3966914015315675      H 
 atom   2.4915877339662065        4.1902926863843026        2.0294443856150912      H 
 atom   5.2618030980690786        3.2348061765692786        2.4015987882257406      H 
 atom   3.7898318586406297        2.9865723909772672        1.4428098600676196      H 
 atom   4.5391108515984300        2.1059829399068630        2.5001826524024766      H 
