 # 25 angstroem -44528.9784262022
 lattice_vector   6.2528895772567701        0.0000000000000000        0.0000000000000000     
 lattice_vector   4.6962322064462353E-002   4.1197945079760894        0.0000000000000000     
 lattice_vector  0.46832565404274629       -4.4552187202347542E-002   2.6075492204632225     
 atom   2.8321421975226198        2.0055082736769396       0.48764496641306448      C 
 atom   4.0656894900086780        4.0283877110072126        1.4062376627517374      S 
 atom  0.35799900368404547        2.8576966414276077       0.82773732793999744      S 
 atom   1.0250102025727568       0.98917258136938457       0.71055898108425941      H 
 atom   3.6505986750132080        1.1256808626100350        2.5452306787359178      H 
 atom   5.5342629271880206        1.9018394717028519        2.2967729915616539      S 
 atom   3.2742792725635277        2.0160500088984241        1.4313661138352110      H 
 atom   2.3893551882885591       0.93989697284401919        1.6693325117576112      H 
 atom   2.0164511646470151       -3.4937558743492116E-002   2.5216027517081718      S 
 atom   4.4480974784284424        2.9921772080364990       0.25606125414203063      H 
 atom   3.6050720889936896        2.7994517585536598        2.5290581779893198      H 
 atom   4.4399947590565230       0.99206694207582569       0.53899161697804154      H 
 atom   4.5403836438891405        2.0075607982480093        1.4311838816448377      H 
 atom   2.8079070747911907        4.0288682216771985       0.62613247604680755      H 
 atom   6.1865382165516065        3.9649241305758789        2.4213425582458763      H 
 atom   1.4273850784068300        1.5534083994972616        1.9352695315404556      H 
 atom   5.7207926773433462       0.66266475351282517        1.2612395885900733      H 
 atom   5.4320055343488596        4.0713199779988063        2.3741430169350717      H 
 atom  0.64069605200350865        1.2159139740221607        1.9610414463962311      H 
 atom   1.7926202447094501        1.9970798797493434       0.43334456827524065      H 
 atom   5.4032401780491890        3.5011344253455383        1.1348495259816558      H 
 atom   6.0869290298868597       0.82185271307467556       0.60980449044776930      H 
 atom  0.81676069781715788        3.5994490537855357E-003   1.7729827881452562      H 
 atom   1.3792650541009741        2.4982191728250722        1.8359310265511193      H 
 atom   2.3147886242170865        3.0495484030754398        1.6538724272531318      H 
