 # 33 angstroem -33820.7404814909
 lattice_vector   4.0698565877023327        0.0000000000000000        0.0000000000000000     
 lattice_vector -0.77052001937932313        3.9146306266637061        0.0000000000000000     
 lattice_vector   2.0199118192479060      -0.89096081756152623        4.5690733686332932     
 atom   3.9385341854584563       0.73463517877949902        2.6074162695441991      H 
 atom   1.1233428459122392       0.75741822311543983        1.1841011004573452      H 
 atom   2.4506805010905497       0.88685232770068134        1.4154702984998424      H 
 atom  0.87804242886306716        2.0730370704919836        1.8422071188349738      H 
 atom   1.5470593076062793        3.0042649900909244        4.3796196797928744      H 
 atom   4.4819694201744449        2.4414644974085880        4.3184056584919190      H 
 atom   2.4006592602482413        1.7453259565096499        2.4294929300273171      H 
 atom   2.8326674583087721        2.2879473879307453        4.0074607064696712      H 
 atom   2.6200017783616412        2.4017911061449948       0.78766278753192098      H 
 atom   1.8529357797995187        3.2710427283968659        1.6050885528726964      H 
 atom   5.7161240279099985       0.28571373841788711        4.5000701446921978      H 
 atom   1.2399397352516186        2.6274006773338234        3.1907984296651013      H 
 atom -0.41784189157436713        2.8091719605618399        4.2742841848301197E-002 H 
 atom   3.9783881611839291        2.1853349114962213        2.8475405283717148      H 
 atom   1.7669185005363761       -6.4271303483790357E-002   2.6311469178646356      S 
 atom   3.8330438650615535       0.83284637455865407        1.2852554594841892      S 
 atom   3.6282621270034134        2.1963325120898891        1.2902805201289975      H 
 atom   1.2087229720817114        1.3232300949519036        2.7762482233451156      H 
 atom   1.2278641814309343        3.5264962327995275       0.67429253649406617      H 
 atom   1.5989883905324713        2.2305232184566841        1.6007338875852968      H 
 atom  0.47443102386036656        3.2707982245249561       0.73002882870834729      H 
 atom   2.9909462319854421      -0.49292476545254804        4.2824729773204755      H 
 atom   3.0212610614251134        3.3619087601265103        1.2303277382854292      H 
 atom   4.7607710142170099        1.4808899040177974        3.4999028426116170      H 
 atom   2.8175090356412511       0.52090463753703398        3.3068337561931163      H 
 atom   4.1656449837751657        3.1870800744222554        1.8276172979276186      H 
 atom   2.7817802085198551       -2.3213600698227276E-002   2.9713187784758716E-003 H 
 atom   4.7993590300189224      -0.17694619646918561        3.5055368220059626      H 
 atom   2.8182988739741321        3.3629460299239935        2.7207772221558124      H 
 atom  0.82000298838376806        2.1868106737097261       0.34475798614634046      H 
 atom   1.8202225971051176        1.3234825934149406        4.1196874760423912      H 
 atom   3.9147488404157067       0.66987112829945250        4.4425558739511724      S 
 atom   2.9798398107492252        2.3885291261129624        3.0036476228467999      C 
