 # 25 angstroem -33725.8725988997
 lattice_vector   4.8487021604039775        0.0000000000000000        0.0000000000000000     
 lattice_vector  -1.2837725647251188        5.0809917381497467        0.0000000000000000     
 lattice_vector  0.40670765304074474      -0.44787575343094038        2.4667836656488142     
 atom   3.3567874926574093        1.1676296875627719        1.0138165563731050      C 
 atom   1.2566050945291574        1.0565671573079820        2.3928752761833989      S 
 atom   3.3141180959600582        3.3105621451073599        1.5809009213437097      H 
 atom   2.4463953919225121        4.5932391399425487       0.37830368101204292      H 
 atom   2.0460974954495317        1.3618044834704368       0.46618274294389028      H 
 atom -0.21649972180865057        3.1244152073133797        2.1088196220036539      S 
 atom  0.30259359977435341        2.2810803272267228        1.0148547662175060      H 
 atom   1.4796237903004041        4.5004867209863280        2.2074375807192799      H 
 atom   1.9463633468284409        3.5214919718872064        1.0413155943895611      S 
 atom   1.5667999641725072       0.17443550523546295        1.3386462681242159      H 
 atom   4.3756602034898240       0.97499068265626398        1.1067219903884002      H 
 atom   2.8969140113854115       0.30262319314227765        1.4139071071510412      H 
 atom   5.6983867426108623E-003   1.2035338359352021        2.0364374648166357      H 
 atom  0.16661849604797913        4.2478949538207535        1.4187003211329896      H 
 atom   3.7758982998238682        2.4909639028799879       0.31927047632806588      H 
 atom   3.0378470291832795        2.0045394898656226        1.5558238368835704      H 
 atom   3.7487497332705368        4.3714156822551518       0.63058487868563518      H 
 atom  0.58513387838334885        4.9718935593432061       0.38096840031948553      H 
 atom   4.9394133760431558      -0.22292490174360324        1.5760613639500531      H 
 atom  0.68673107007456990        3.5259925116703656       0.25760313636441518      H 
 atom   1.6442916617629952        2.1834563186033278        1.7018936682803407      H 
 atom   2.4883654720377306        2.6987904061662324       0.16531169474303850      H 
 atom   4.3484095193389951      -0.37837830925601712        2.0686909512699976      H 
 atom  0.43039795177795476       0.36217749690798923       0.52519190151578687      H 
 atom   3.6400938963480427       0.66013512576335531        2.4508412577549428      H 
