 # 32 angstroem -33809.6647771328
 lattice_vector   5.4728652325783189        0.0000000000000000        0.0000000000000000     
 lattice_vector  -5.9359114323122221E-002   4.7914845051149229        0.0000000000000000     
 lattice_vector   3.7586656017742463E-002   2.4095397652521334E-003   2.7676738310758262     
 atom   4.5945021371402639        1.1746192892939717        1.1351731984863063      S 
 atom   4.8863922259502148        2.6741021382280858        2.7155624695343463      H 
 atom   2.5383678534236971        3.9111931242151292       0.67770155517179675      H 
 atom   3.2954208830455065        1.7651732898785495        2.1347764367121846      H 
 atom   4.6100797007482273        4.0270957165761425        2.1801678612363933      H 
 atom  0.74206633646057163        3.5829266888147133        1.1119988109827090      S 
 atom   4.2685454666286828        3.7371906837661597       0.75297181287165338      H 
 atom  0.64606815860673106       0.34947571323836285        8.8425415422434858E-002 H 
 atom  0.50528017742458942        3.5353451550090473        2.4965147269920500      H 
 atom   2.4630629148730065        2.6047074976054243        2.6262577521986099      H 
 atom   5.1860982463759351        2.6543139076119990        1.1716752329538151      H 
 atom   4.8554077532170332        1.1682439873958415        2.5002573855021106      H 
 atom   4.3022504564818247        2.7193906876320395        2.2874242115659524      H 
 atom   1.8195722946012520        2.8603553925091063        2.4305918487474618      H 
 atom   1.9562682837779681        4.3058563956915643        2.0132227710127202      H 
 atom  0.55356838125891072        1.9898310735944251        2.1513543481791317      H 
 atom   3.3567300725286264        3.5265122693481543        1.1890773794552651      C 
 atom   3.4067187357411171        1.7791789887877043       0.13717466680060747      H 
 atom   1.8018139652775609        4.4125683166253218        1.2163222116672274E-002 H 
 atom   5.2407469644968439        4.6607382478528381        1.1145843655839949      H 
 atom   3.2499970201411426        3.7217468659137403        2.2054642046509874      H 
 atom   2.0435044728490253        1.0385486881912018        1.1502626957303974      S 
 atom  0.61287869936554729       0.31361338691100488        2.1338854978119266      H 
 atom   3.5059947309436477       0.26847173727351847        1.2240755922677837      H 
 atom   3.7388566012641009       0.16345669386538267        2.6145091656917465      H 
 atom   3.0330922974426389       0.33024146036870938        2.5578136687311992      H 
 atom   1.8625672209715236        1.2291453797497955        2.5190987277556314      H 
 atom  0.63090440410398096        1.2119101954961964        1.1249938016868577      H 
 atom   3.2413515793813530        2.4955880936273909        1.1060970852403584      H 
 atom   4.8337347620652906        4.5402135196805880        2.6450263295342702      H 
 atom  0.67193691854884929        1.9825293796894248        9.5052798306850775E-002 H 
 atom   1.7417296409031293        2.4449580226992755        1.1444646069318434      H 
