 # 32 angstroem -44612.6136062565
 lattice_vector   6.8663132100990323        0.0000000000000000        0.0000000000000000     
 lattice_vector  0.37228449175526940        4.1507639004848897        0.0000000000000000     
 lattice_vector  0.56874239697724760       -7.4804922126855411E-002   2.7584723107321647     
 atom   6.1549534503981445       0.35556834053288172        2.7389367777052844      S 
 atom   1.4827107701270723        2.2886562172482656        2.2958622884528630      S 
 atom  0.79590378457610544        2.1838487325826450        1.0890637104179435      H 
 atom   5.2785496725600360        3.3934480977690464        1.4559892490756252      H 
 atom   4.8356192057476584        3.7365557629165305       0.16459779456794721      H 
 atom   2.4547466227671877        3.2922770419332612       0.69616800283328550      S 
 atom   3.3533860842971124       0.72384062118489845       0.44530782387274637      H 
 atom   2.8685950473001278        2.0299202340135061       0.52552077797098873      H 
 atom   6.2879963416337583        2.3896288372030590       0.55049541658937762      H 
 atom   2.0402657956700772       0.73679511251748131       0.92381322434394120      H 
 atom   1.6937524807452957        1.2767583755085099       0.50825249369361758      H 
 atom   6.4451844240481027        2.5260887476183016        2.2476556485564601      H 
 atom   7.2546167170076306        1.3205578694453111        2.5431096754493017      H 
 atom   3.7763528468663683        2.3883945497042687        1.8365100152281884      H 
 atom   2.9944447838561081        3.8968055975743505        2.1367813524633177      H 
 atom   2.6172642259444618        1.4302322298976389        1.9738368557815511      H 
 atom   5.8027802497165091        2.4984672384923847        1.4479592353738178      C 
 atom   4.0697562257209752        3.0779910602159650        1.7623369976381982      H 
 atom   1.4765503859849487       0.14569112605793727        2.5826386475052971      H 
 atom   4.0139602448926199        1.9922477588798464       0.40769607511712025      H 
 atom   4.8009044325728736        1.5136527011621985       0.18839954857111668      H 
 atom   3.8223613667622964       0.69334659545246358        1.7956058011240830      S 
 atom  0.50068783821166707       0.82260620329500800       0.89362317285420922      H 
 atom   5.7600200983300915       0.37570626422537190        1.3783537064658096      H 
 atom  0.88310829266571089        3.7998537591175934        1.0554680775887051      H 
 atom   1.2322538478286718       0.41485415620892974        1.9359282096073482      H 
 atom   4.4674724177553049        2.6631867463207275       0.24408876323578094      H 
 atom   6.8487112318710750        1.2112500604371825        1.2719971515023947      H 
 atom   5.1038875257716683        1.7284886799871964        1.5744470444441692      H 
 atom   7.0622764366402935        3.4891918262983070        1.1955381808879129      H 
 atom   7.5845513021477373        3.4333798727936009        2.5413113876850826      H 
 atom   3.8746480810257675        3.4970186627314104       0.37973656388405913      H 
