 # 35 angstroem -77061.8330769017
 lattice_vector   5.0955517666042613        0.0000000000000000        0.0000000000000000     
 lattice_vector  -3.3417673065147110E-003   4.1566545166801738        0.0000000000000000     
 lattice_vector   1.7661010756905242        1.4836300282647858E-003   4.7833137851131688     
 atom   2.1424880745663812        2.7442335916183271        1.9755031560224523      H 
 atom   3.4367430483596739        3.0587673581115076        2.3667298241706294      H 
 atom   5.8815851830756953        3.0765466759199604        2.4997241309150864      H 
 atom   3.4580905446918559        2.0262090552208769        4.1157978127224153      H 
 atom   3.3544243524271757        4.0900535397153384       0.54354203225125908      H 
 atom  0.82719336313570768        1.8441678047492593       0.35894295236238039      H 
 atom   5.1704458576398942        4.0842715246214025        1.7117859396578174      H 
 atom   1.6758084979698886        4.0980420679599208        1.1883927001192949      H 
 atom   6.8498765240569623        3.0583424061700559        4.7472207120629548      H 
 atom   3.4832355273429272        4.1025491803380962        4.1837669591233890      H 
 atom   6.0189591592278378        4.0800133558475595        4.1023071941867091      H 
 atom   6.0318558544448644        2.0422967778246397        4.1052123862984908      H 
 atom   4.2578449929055218       0.95824276181082169        1.1720989169972769      H 
 atom   2.7605407217409601        1.8383242938536002        1.7156591118952096      H 
 atom  0.80175700831954488        2.7201398814635529        1.0725763600465408      H 
 atom   5.1652197388476973       0.98538405107271376        3.5349111304275058      H 
 atom   1.7601537833005245        4.0864713379694297        2.8838669908732251      H 
 atom   3.4277428577630777        2.0344956293849745       0.54548623836540255      H 
 atom   4.3173309146705936        2.0390248013794063        2.9135754246190930      H 
 atom   1.7660951928565030        2.0012431978933041        2.9642318019594196      H 
 atom   2.3603158977754810        2.9388959018223169       0.21280824589418876      H 
 atom   2.5780056070554020       0.96383655530642087        3.5504153290211691      H 
 atom   2.7378241678756927        5.2337521864390252E-002   1.8296186291842074      H 
 atom   5.0888975576594477        1.9979913377988532        1.7324293117216050      H 
 atom   4.2306611213706802        3.0780880904278178        1.1438332601644783      S 
 atom   4.3415240123196632       0.99517305661762501        4.7129216254004529      S 
 atom   3.4802728540881387       0.97400711866841028        2.4034867465361338      S 
 atom  0.89475990132167593        1.0032163970410459        2.3282698574267804      S 
 atom   6.7978227143043251       0.97738695373965689        4.7138670964928497      S 
 atom   2.6210016069692279        3.0785147547559895        3.5705440190561268      S 
 atom   5.1259241519475687        3.0588317195348176        3.5730800530594049      S 
 atom   1.7738927053706781        3.0745982998801979        1.0659695281106623      C 
 atom   4.3236499333264957        4.0811378898358184        2.9229669332959967      H 
 atom  0.72619889541956018        4.3767476086148158E-002  0.42416829540375883      H 
 atom   1.7209803335427967        1.1828669375353340        1.1445812651274110      H 
