 # 25 angstroem -22922.4946770185
 lattice_vector   3.7529198984851613        0.0000000000000000        0.0000000000000000     
 lattice_vector -0.74444242955261308        5.7872456013092881        0.0000000000000000     
 lattice_vector -0.97334286076232290      -0.12728163826663355        2.5310100609348356     
 atom   2.0468343971645551        5.5987127354252531        2.3938537988965449      C 
 atom   2.0668279409217516        8.8870163571846253E-002   1.7210738285498761      H 
 atom -0.26247505449370379       0.56643949308996955        2.4706795792463643      H 
 atom  0.72826318160641990        1.3539780621874851        1.5620985007825403      H 
 atom  0.86302842351129261       0.61002947986528722        1.5454428871160601      H 
 atom   1.2970444360158053        3.9874822710170132       0.45264793582906426      S 
 atom  0.69134723264553288        2.5526250691663765        2.0371433070690563      H 
 atom  0.96647133477157399        2.6043196925953582        1.2848456977061578      H 
 atom   2.5334234451828541        1.9510849470410347       0.82036477542327679      S 
 atom -0.28995612973606222        1.0998101993972387        1.1458478383507300      H 
 atom -0.31603357720043102        3.9880643793372363        1.2820775015808092      H 
 atom   1.9122955760105913       0.57693612452734744       0.48580106167901638      H 
 atom  0.87713399486562793        1.7837265730296321       0.22587091856467117      H 
 atom -0.55823273831555031        2.2043266185719794        2.5269959052419892      H 
 atom   1.1089157767404725        4.2314290930003908        1.8495343514171274      H 
 atom -0.37855266710293001        2.9309948844855245        1.2067750802018344      H 
 atom   1.1929359159495738        5.5514607930973030       0.49141853758521026      H 
 atom  0.13552464238856921        5.1911654462230485        1.1401146969263749      H 
 atom   2.0206895467776693        1.5064662516058687        2.0580902857087269      H 
 atom   2.5582656348928725        5.5857479631290987       0.77985166682432261      H 
 atom   1.9622008628011238        3.1808710525792914        2.0968728284160449      H 
 atom   7.4984058909241078E-002   5.3031462142009032        1.8746432086589111      H 
 atom  -1.2174754016486171        4.7210555181185905        2.1304243058733898      H 
 atom  -1.1809177090200946        3.4722423975602159        2.4071865556838534      H 
 atom   2.6657415212491129        4.1285101380679556       0.94147854918745466      H 
