 # 36 angstroem -44659.7012677503
 lattice_vector   4.8137847807050518        0.0000000000000000        0.0000000000000000     
 lattice_vector  0.90944666248064387        3.6642543479905028        0.0000000000000000     
 lattice_vector  0.54217713122906486       -1.7586739881818998        4.7445968294005372     
 atom   1.6869599621326687       0.70140863795834552        1.3845754758814488      S 
 atom   1.9347379081814924        1.0261793596238942        2.6818194658283074      H 
 atom   1.3173989404513362       -1.4955109081264195        4.3948550892319531      H 
 atom   3.7009661321745364        2.4354630020396884       0.66001967362198555      H 
 atom  0.67921598966364782      -0.12845751031586039        3.3546085671577579      H 
 atom   4.8398744332167052        1.2071869727631885        3.0290054754560551      H 
 atom   1.8531203623757777        2.2343630598218422        3.7285112067367487      H 
 atom   1.9561114594366944      -0.52311580167152771        4.6334744549682849      H 
 atom   3.2229441862979895       0.33861315365193517        1.1045761187731225      H 
 atom   5.3853650837253193        1.5240499922169606        4.1369675186086301      H 
 atom   1.1691233068713256       0.39428486992426293        3.5457944884298813      H 
 atom   2.3788819197093436        2.7888601016621677       0.68094081334707546      H 
 atom   3.9172625935289913       -1.0338515714102803        3.3896384573551233      H 
 atom   1.9199398857574228        2.3926819903336591       0.23267362031875349      H 
 atom   2.9601179450301318        1.6808130193039346        1.3486321435133646      H 
 atom   5.2066742799715415       0.24773961981112297        2.1744334576317650      H 
 atom   3.0959326248363412        2.6153520608290508        2.4323270652312940      S 
 atom   4.0573320867602813      -0.39298494082335000        4.1979273334782148      C 
 atom   1.1374291788512534        1.8021650371095812        3.1413660136518207      H 
 atom   4.0423846438119471        1.1963941329261052        1.3938188581137243      H 
 atom   1.2381789865197605        8.2178001088669489E-002   4.7857037776720741      H 
 atom   1.2066321602983785        2.0183335353215757        1.3945298072386527      H 
 atom  0.32268251056757419       0.17417998307773064       0.68755228025930615      H 
 atom   5.5060989834710954        2.0541102316503395        2.4974945227367900      H 
 atom   4.5758251143854753      -0.25810255824161771        2.2023598211173456      H 
 atom   4.5125898964735383        2.5366413497761919        2.1568978158528211      H 
 atom   2.3192394943159864      -0.44414595602666124        3.6413954637094204      H 
 atom   3.3924184692678918       0.36236708646971405        2.3490150653578858      H 
 atom   4.7675468771050866        1.3243058359063502        1.4940407393393289      H 
 atom   2.7292218432469482        1.1450920057508729        9.4753779746925962E-002 H 
 atom   4.9835451820756358      -0.56524119079080481        4.6596794714899819      H 
 atom   2.2995765650841946       0.82648674143549872        3.7957162304644627      H 
 atom   3.6729547888457454        1.7856322399176126        4.5755150487167651      H 
 atom   1.7471072661237652        2.6454652055765129        2.2075251411001475      H 
 atom   4.9274959179580611        3.0015469687611920       0.67333256014877318      S 
 atom   3.6157084645626880        1.0181636520850144        3.4730310731509531      S 
