 # 50 angstroem -120457.269488625
 lattice_vector   6.3820383143708348        0.0000000000000000        0.0000000000000000     
 lattice_vector  0.71153117801439980        5.0284136235467187        0.0000000000000000     
 lattice_vector  0.64548419900358889       -1.8247380122481982        4.6733286919084280     
 atom   5.1425631329656492      -0.74712488671493937        4.1817697339496158      H 
 atom   1.9533770610699068        4.1718416134108924        1.7652738377242487      H 
 atom   3.0025935309754370        1.4213692901335337        3.3572893261672085      H 
 atom   3.2793334738937494        2.2764973949142444        4.4999549478942473      H 
 atom   3.9652529468875208        2.1906645331436421        2.5744812630950027      H 
 atom   7.3472688227676466        3.4695149355665085        2.5243058039473159      H 
 atom   2.2905713879775340        3.2710508130326916        4.1205795090268467      H 
 atom   3.6096551292387260      -0.32786886665393283        2.5517768970774535      H 
 atom   5.6447132446837909       0.88168689143862788       0.75169082090664840      H 
 atom   2.6694545593232357       0.70016988229092547        2.1116398544678709      H 
 atom   3.2970093221231518       0.60475176979915057       0.21033961238621923      H 
 atom   2.8920245512233107      -0.24527402578729285        4.5185700678866345      H 
 atom   7.0230428153173827        2.6865112977574315        1.3892185833760391      H 
 atom   2.5946980303125202       -1.0408433251159694        3.3447000442880102      H 
 atom   4.8075983509576350        4.6593984062893252       0.81386275619583226      H 
 atom   5.6208089124866749        4.5131272498429347        4.5982873161699946E-002 H 
 atom   4.6716889947411522        2.1076868123536827       0.62155789544074047      H 
 atom   2.9182053715243299        3.1638921599428040        2.2062052862688613      H 
 atom   1.5927796965498540        1.6598809225311453        1.7697491924623248      H 
 atom   3.6423204439543277        3.1298328471885433       0.22060065402511975      H 
 atom   7.2819178409047680        1.8003978881856733        3.7753675082537974      H 
 atom   2.2955905082421371      -0.16104683270030257        1.0032954878981892      H 
 atom  0.72130260361920306      -0.55057095769162911        3.6869600004810450      H 
 atom   5.3560210385711517        3.7214949872338323        2.9905904716366845      H 
 atom   5.2824039748612170        2.0206466744911475        4.1253098078395674      H 
 atom   4.9767213638941303        1.2207514189672173        2.9714624051983214      H 
 atom   5.9884937950222525        3.6319182576811202        1.0220510572293315      H 
 atom   5.9441093907742131       0.17643199598792744        3.3453359937009375      H 
 atom   5.0112665138024424        2.9308534055319280        1.8206957575266296      H 
 atom   6.2735706046762187        2.6516313827785036        3.1878014344253196      H 
 atom   4.6646387776184524       0.42189426047086731        1.7702634270352855      H 
 atom   6.9966981416482037       0.93303305907593581        2.6111637703667832      H 
 atom  0.71800250069276961        4.2899871151829876       0.30847678186811217      H 
 atom   1.9165481378918241       0.76465769948649531        4.1124011459953138      H 
 atom   2.6375424856035603        2.3574166670544905        1.0040854166470234      H 
 atom   1.6409555577869770       -2.9418798418200529E-002   2.9102086110697667      S 
 atom   3.9589049123400439        3.8596792302241618        1.4218806884227073      S 
 atom   3.6602272389464034        1.4102913248478932        1.3822184099410435      S 
 atom   1.6338211398346949        3.3654254050246939       0.59987507620327696      S 
 atom   1.9559474868698452        2.4354407673613814        2.9613926524454488      S 
 atom   5.9784361472784688        1.8960298989830275        2.1506155485559910      S 
 atom   5.6213812178987341      -0.58011121277320243        2.1835421054162074      S 
 atom   1.2747464015040162       0.85280010921691218       0.61829735643340589      S 
 atom   4.3188017494795616        3.0023818915500944        3.7421559270092590      S 
 atom   3.9744681594854177       0.45609020691635138        3.7352091362824691      S 
 atom   6.3057271431240718       0.99071952419816078        4.5198499696158585      S 
 atom   5.8979243406424917       -1.3735259401187427        4.5578579157989418      C 
 atom   7.3293258774999872        3.4717558302210469        3.8366952389515254      H 
 atom   6.6556729571911557        1.8264954389706223       0.26254496228457108      H 
 atom   6.6135198353403801       0.14961904973498266        1.4048484917673656      H 
