 # 48 angstroem -120432.961853641
 lattice_vector   6.3250269612885690        0.0000000000000000        0.0000000000000000     
 lattice_vector  0.68735128967539727        5.0100778970700768        0.0000000000000000     
 lattice_vector  0.65374423603657394       -1.7891327903145928        4.6383076518057589     
 atom   6.4947649844570856        6.8295381061402635E-002   3.4320675388318009      H 
 atom  0.95740427847128562       -1.1214406894630309        4.2803005273774746      H 
 atom   3.4963422866827596        1.3341393493805653        3.4180404220068490      H 
 atom   2.4335035020800397        4.0901923909367275        1.8151076401350095      H 
 atom   5.6561080989750510      -0.78756834128300113        4.2606058700363638      H 
 atom   4.4515154879563221        2.1032014154732837        2.6172231076046240      H 
 atom   1.4662765407491833        3.3770825430487368        2.6860677645514239      H 
 atom   2.7802892602939893        3.1877744103567345        4.1616331689314237      H 
 atom   3.0558069787945801       0.54391533991090091        2.2835773279473988      H 
 atom   6.1484426594534112        1.1061963018797294        1.1631616789770065      H 
 atom   2.7741244467460908      -0.23031994195177313        1.0862264248906579      H 
 atom   3.8481819544964444       0.44660601212002654       0.30424538875663198      H 
 atom   3.4249049360470920      -0.30895698295099217        4.5524971801681575      H 
 atom   1.1392497706044842        2.5675009326865150        1.4535343950828290      H 
 atom   3.1391800509702157       -1.1192957132107746        3.3814010914960475      H 
 atom   5.9774083671502574        4.7409294277796636       0.64679962256323076      H 
 atom   6.8939245522585360        2.7884581710462295        3.6547112253955918      H 
 atom   5.1179156343458265        1.9605080145364657       0.65369633449662046      H 
 atom   3.4952209901495563        3.1340884747831508        2.1791733372027666      H 
 atom   2.1100920346754619        1.5704347894895012        1.8452684253583909      H 
 atom   4.1184689545367679        2.9929071601909407       0.29678104958607882      H 
 atom   1.1241466708773464       0.82548013428852351        2.5685423244101990      H 
 atom   3.7835356208860764        2.1861720717125355        4.5455454650225198      H 
 atom   2.4497652538073882       0.70442652211583190        4.1588258425831164      H 
 atom   4.1010588678034585      -0.39751721863114475        2.6080861488887055      H 
 atom   5.8177168167831725        1.9772844068565985        4.2100424663366764      H 
 atom   5.4506035110238455        1.1140890823037197        3.0014549455176915      H 
 atom   6.4323113979187942        3.5427681350897053        1.0665573022299359      H 
 atom   1.4200156054500668        1.6724781801581912        3.7556183594389001      H 
 atom   5.4352171612418889        2.7661168446332898        1.8185335900555886      H 
 atom   5.7988336386193726        3.5997619803440029        2.9996488152235905      H 
 atom   5.1207995061424567       0.31841396808128897        1.8290924849266212      H 
 atom  0.69458845097166111        4.6379410127231860E-002   1.3575524939878720      H 
 atom   1.1690479071928144        4.1766228195687924       0.29226422944326225      H 
 atom  0.78029767893686475        1.7503837219830527       0.27744734937765331      H 
 atom   3.1287746249052573        2.2896494363524300        1.0612731714120602      H 
 atom   2.0817576048841215      -0.16003162183668934        3.0351304723092105      S 
 atom   4.5032015391127631        3.8182187060914137        1.4406525023493066      S 
 atom   4.1015100623271250        1.2807460984944423        1.4520792150924222      S 
 atom   2.1097777807426850        3.2779896860336639       0.68853895591238590      S 
 atom   2.4665860004560463        2.3812293901460175        2.9926950638463459      S 
 atom   6.4571435137151294        1.8339297309414422        2.2511394474921516      S 
 atom   6.1047509102389537      -0.67990786097785005        2.2424617382149670      S 
 atom   1.8048111229866781       0.75387289897293142       0.67930434591152566      S 
 atom   4.7963411155971025        2.9012297788816204        3.7772375352842120      S 
 atom   4.4822246684137523       0.38571623874226496        3.7822171870959216      S 
 atom   6.7720035166954657       0.92981006138063205        4.5403633226038762      S 
 atom   6.3527740724012496       -1.5598676543374750        4.4628530690730042      C 
