 # 47 angstroem -120420.162585373
 lattice_vector   6.2937209537430974        0.0000000000000000        0.0000000000000000     
 lattice_vector  0.69838521388021901        4.9741805090287610        0.0000000000000000     
 lattice_vector  0.62953552715310879       -1.7629586315509531        4.6395299359325479     
 atom   5.6434240683907149        3.1010323899130023        4.1294392297695435      H 
 atom   4.0360214073661469        1.3207024036922563        3.8372864991967437      H 
 atom   6.4271173842549878      -0.73261679112080780        3.2023399259280847      H 
 atom   5.6958965722969150       0.20845802254707488        2.3148380581602552      H 
 atom   1.9965846383915102        3.3048168969054617        3.0543513536036055      H 
 atom   3.6976562407632465        2.2239038196266541        1.5168750791872816      H 
 atom   6.1231758445441082        2.9434665956324269        2.5080330307681939      H 
 atom   6.6925765616953656        2.6337701156348046       0.30850932732123898      H 
 atom   2.9780984136236852       0.69320884405240957        4.5707956543575508      H 
 atom   1.7252817857269984        4.1900409449825826       0.71921357488116255      H 
 atom   4.8493848016774042      -0.65293941623784668        3.1411436007502496      H 
 atom   2.6941180151926667      -0.16417007788225554        3.4391931448138022      H 
 atom   4.6948369401545955        1.2350868235214310        1.8943553444435488      H 
 atom   3.3668690063890017      -0.25497815194075402        1.5136182362572899      H 
 atom   3.6906242167045122       -1.1663480870127412        3.8319348474549728      H 
 atom   3.0920000870495636        3.9904412911899270        2.2817741545894350      H 
 atom   4.3835242225282354       0.45688941400898608       0.70286001154631284      H 
 atom   3.2756310465127685        3.1794523752352903        4.5890608828828645      H 
 atom   5.0515295691803903        3.7141517640307877        1.8838696198691258      H 
 atom   4.6709285061041825        2.8997988428974297       0.70157684848231883      H 
 atom   2.7621724702847659        3.2463422269897242        1.0798266807455061      H 
 atom   6.0568588123504306      -0.51903986385467649        4.6692611110385513      H 
 atom   7.1358826914844240        2.7790434561443900        3.7639301966142940      H 
 atom   3.0394611704785834        2.3151585062979398        3.4519242604423050      H 
 atom   7.0304927446792904        3.4803712124859274        1.5715613254955370      H 
 atom   2.3119821896597004       0.65345856038973094        1.1780990432516685      H 
 atom   5.1307185597365610        2.0181118111608360        3.1142057506157035      H 
 atom   1.6731385149244444       0.78566821894261341        3.0817368616354441      H 
 atom   6.3096111212343917        1.9149102512259109        4.6019649625166394      H 
 atom   6.9892332917595219        1.8071373028895819        2.6377846231720761      H 
 atom   2.7319154357976503        1.4506827501761752        2.3186206450321607      H 
 atom   5.0154435450112373       0.26724707827527744        4.1777237274108474      H 
 atom   1.3944970793191891        1.6872220472695945       0.73970749962803017      H 
 atom   6.2874275223117300       0.17528028565246215       0.27647492592075401      H 
 atom   6.6924932380127151       0.96690694887269846        1.4678015495753618      H 
 atom   1.3276664294248761       -1.8538465543888567E-002   1.9391197365825523      S 
 atom   3.7486787630199561        3.9406608670135550       0.32425139725590468      S 
 atom   3.3501616537310590        1.4076616676370042       0.34904378001375430      S 
 atom   1.9851400638369492        1.6472014110397253        4.2136249976954616      S 
 atom   1.7332109527059434        2.4919074573984501        1.8917193784334039      S 
 atom   5.6919754899811661        1.9643700347575788        1.1365376042228856      S 
 atom   6.0481651362667339        4.4298518344229336        1.1286583447120313      S 
 atom   1.6448454126713559      -0.83126073672516443        4.1851820127039510      S 
 atom   4.0511554805979682        2.9995612668446707        2.6743036865405219      S 
 atom   3.7407922251594221       0.51161730873147304        2.6865406678280062      S 
 atom   6.0597457775606189        1.0310116100695554        3.4518405209038718      S 
 atom   6.3278456944319981        3.5068429733969491        3.3889291712612701      C 
