 # 35 angstroem -33844.8002039445
 lattice_vector   4.0757590411995279        0.0000000000000000        0.0000000000000000     
 lattice_vector  -1.7848868716988906        4.4406862335592523        0.0000000000000000     
 lattice_vector   2.0983271549192373       -1.6356359388853088        4.2013776141961499     
 atom   3.5506006569959148       -1.4654148074628615        3.9329769902425342      H 
 atom  0.53330066328154391        1.6310203930998000        2.5440606453812973      H 
 atom   1.9808405622533027        3.3155538708754619        2.4923876177400168      H 
 atom  0.56476151947671149        2.0145494480903006        3.6717626632161071      H 
 atom   1.8083705867407525        1.6600676335240212        3.2767035189640659      H 
 atom   3.6135915755801262       0.35988492447544868        4.7718091653409483E-002 H 
 atom   3.4033641800069803        1.1114899703013552        3.2132514666446608      H 
 atom   2.7633216773937375      -0.11532296589734806        2.9445925301811444      H 
 atom   2.1932193950178891       0.15149118756901628        1.0498105691112485      H 
 atom   4.6868095961591765      -0.59815509680768986        4.1459054584743527      H 
 atom   2.6211693247772874        1.0770131767097779       0.76538184243716023      H 
 atom -0.21457216114179792        3.3457184529590736        2.4025007766213027      H 
 atom   2.1104211957350651        1.2770672333154458        1.8967789572763931      H 
 atom  0.74277604909843797        3.4398872983579643       0.41307824947697169      H 
 atom -0.41798127854348976        2.1517419126436446       0.19462897604132642      H 
 atom   2.6716293529777353        3.0585023306487225       0.68170192522273698      S 
 atom   2.7759454444104379        1.8572425050294632        3.5934313152046844      C 
 atom   1.5574344462296126        1.7565472864013352        1.8060893381212515      H 
 atom  0.73825496181013428       0.63789392658667299        1.4069397179847769      H 
 atom   3.9652866200472676        1.9446268525678398        2.0512462529259161      H 
 atom  0.35971446392078127        2.5612495382421625        1.2463823322019791      H 
 atom   1.3569496983484381        2.7807232559839670        2.5576332350794377      H 
 atom   3.3689087350003377       0.49687565384242621        1.9400147025707253      H 
 atom   3.6067977348252684      -0.44034068615938443        1.1577018130711789      H 
 atom   1.0138941804358470        2.8991572586699061        1.4758599692883196      H 
 atom   3.1382829436803332        2.7636637288618031        3.2494796490103197      H 
 atom   1.9270456509040246       0.40397015681396836        2.7416396801120317      H 
 atom   2.8515971033688658        2.4570771781748562        1.8884824445061874      H 
 atom   2.3931818361492541      -0.29397067508856989        1.6978832810670275      H 
 atom   3.3771869815797175        1.2355270662221707        1.5378662283880644      H 
 atom -0.41800468673159330        3.8577504892006949        1.0402981557269244      H 
 atom  0.37560888631756134        3.0137418930302604        2.8455593768994434      H 
 atom   1.6316365027644706        2.1171776605357020       0.35754279500559694      H 
 atom   4.6517750731909322        6.5528296485151988E-002   2.8016065160738433      S 
 atom  0.62751443539867779        1.1224398366355615       0.11806098370675856      S 
