 # 35 angstroem -44647.901175251
 lattice_vector   3.9696646030711298        0.0000000000000000        0.0000000000000000     
 lattice_vector  -1.9468995442766737        4.5219872984067893        0.0000000000000000     
 lattice_vector   1.9411155424570463       -2.6801206897049006E-002   4.5709700963927764     
 atom   1.6275365264149835        1.5096149918442709E-002   1.5991087841220593      S 
 atom  0.73987859708138515        3.7316912785052461        3.6268989602714705      H 
 atom  -1.2890010164001546        3.8924746455261414       0.21710093703755737      H 
 atom   3.3587293571919847        3.1003493982980519        4.3635650126746430      H 
 atom   1.7893188188111311        2.0215765364454716       0.75972577572929523      H 
 atom   2.1424337880027227        1.3571870001128896        2.2222626862667507      H 
 atom   2.1081415752739536        3.9105927068719253        2.9026280361245056      H 
 atom   3.6912447701669703E-002   3.9431503392210607       0.11552294086946371      H 
 atom  0.35001193105099399        2.8734220587403803       0.43217213950782946      H 
 atom  0.31249996716595246        4.0164678225928476        3.0701420607503516      H 
 atom   1.5444759680185440        2.7014065880715434        3.3528467967295787      H 
 atom   3.0457789495939305       0.45308712596310402        4.1639156037262168      H 
 atom   3.1962596343075860       0.44977540920983949        2.9699920846565635      H 
 atom  0.46717824830451393        2.5429931208254200        2.0597587099200214      H 
 atom   2.0237834739669589        3.7041321917287737        3.9061879697185122      H 
 atom   4.7837553111242972        1.5982362827743377        3.5583124157364869      S 
 atom   3.3656674092521981        2.4210264211731558        3.5888131710936055      C 
 atom   1.9383638277571127       0.82636046191784107        3.3830039319821372      H 
 atom   3.4345618242541427        4.3383390532889514        3.9758214661383855      H 
 atom  0.61841410066774360        1.3591357961136370        2.2414127013577372      H 
 atom   2.6405144210566758       0.65031144085385140       0.85440519051328090      H 
 atom   1.3909293866806889        4.3816481501845903       0.16989534853428195      H 
 atom   1.2321287991695187        1.4681355900762172       0.81402381088136022      H 
 atom   4.0876848676814044       0.58694788272586462        4.1209902692416449      H 
 atom   2.2198194401688554        2.1562459197330357        2.1462737343544842      H 
 atom   2.6692766922267266        3.1250770996431871       0.24094543913138641      H 
 atom  0.52633206162328472       0.62892425827970722       0.11038304322233208      H 
 atom   2.6693278179896862        1.6859457948189362        3.7896996933883189      H 
 atom   3.2106492634649988        2.9250412465996978        2.7015372371348798      H 
 atom   2.8516196542243955        4.3800647268281905        2.9275799415824770      H 
 atom   3.1495352405515229        3.2178449680521948        1.5726670935216605      H 
 atom   3.3816234125882412       0.87255979458234267        2.3822135882735416      H 
 atom   4.1409060915934921       0.21811162955347191        1.4171422488792949      H 
 atom   1.4064737465142005        3.4069801630018022        1.6362309654543161      S 
 atom   3.5179531177739420        1.8101416591371391       0.85368694442146398      S 
