 # 6 angstroem -11891.0233213586
 lattice_vector   2.5303320444877957        0.0000000000000000        0.0000000000000000     
 lattice_vector  -1.3150648222147965        3.3772944935710476        0.0000000000000000     
 lattice_vector  -1.0888304718586970       0.47518208270703921        2.2143188214139173     
 atom -0.48212076926158043       0.75236546100662860       0.50306320381710723      C 
 atom  -1.2906328727083458        2.5766475935746924        1.8647139268233233      S 
 atom  -5.8699078071615562E-002   1.0967291954069223        1.4197825380356905      H 
 atom  0.80236439607786314        2.1117352699876193       0.71351594025060194      H 
 atom   1.0778728994207496       0.48928601594970650       0.76108112020642071      H 
 atom  -1.2856680359260568        3.3118084163022283        3.2271047059953879E-002 H 
