 # 7 angstroem -22706.4327381575
 lattice_vector   3.7881332927558402        0.0000000000000000        0.0000000000000000     
 lattice_vector  0.88394240310029393        2.4311462972375577        0.0000000000000000     
 lattice_vector   1.2913832141705721      -0.46822304215538152        2.8098065969397150     
 atom   1.5237229365972906        1.1508673252820569        1.9124809052861349      C 
 atom   2.8920719240379706       0.40554716286439491        1.1591196431111304      S 
 atom   3.7845395614170338        1.4581154520939474        2.6658044207603866      S 
 atom   1.0031653644182665      -0.28395567959187024        1.9126456031632399      H 
 atom  0.98937482409821798        1.0327449297803120       0.96847873515792837      H 
 atom  0.56666692242316274        1.1865038259927916        4.7205732901455674E-002 H 
 atom  0.36521628503974352       -2.6013947723700356E-002  0.50704593810080179      H 
