 # 7 angstroem -11903.1033898246
 lattice_vector   2.5199790928323886        0.0000000000000000        0.0000000000000000     
 lattice_vector   6.4110157511091045E-002   2.5176119951862561        0.0000000000000000     
 lattice_vector   1.2174720336395566       -1.2262508638143266        3.1729657727236971     
 atom   2.0656440794844877        1.3800623549426962        1.4452189620912785      C 
 atom   1.2370791389930555      -0.51025475698958556        2.7179541867467467      S 
 atom   2.2569265387085200       0.31178858220135591        3.0426377651241343      H 
 atom   2.6191215717014145        2.1208653716727057       0.94575663334206750      H 
 atom   1.3079723122045039       0.76352848180333355        1.0439392732833974      H 
 atom   2.7592316847722578       0.66774030610002200        1.8521200991721192      H 
 atom   1.1228941387793541       -5.1077548632877827E-002  0.26144375040366830      H 
