 # 74 angstroem -185566.611648998
 lattice_vector   7.5576835460734202        0.0000000000000000        0.0000000000000000     
 lattice_vector  -3.3389740275475410        6.3150074199801631        0.0000000000000000     
 lattice_vector  -1.6956005639563803      -0.87752590701567457        4.7183482611734959     
 atom   2.6803808207572191        5.7550165664216726       0.40566714876346177      H 
 atom  0.36926788428234181       0.44657884170907597        1.3340262885223431      H 
 atom   5.7433584295748723       -4.1004641302377465E-002   3.7460131361105580      H 
 atom  -2.7719541713490305E-002   5.6326638668471700        1.1385175943345995      H 
 atom  -8.8727584163320636E-004   1.5871701783074510       0.38391457864914852      H 
 atom   4.7063068222944953        1.4186772219162034        1.1173377805964135      H 
 atom   1.3944186984102003        3.6881659798242432       0.32990614158535903      H 
 atom  -1.3951486136426097        3.5263487147207404        1.1755128892052793      H 
 atom -0.93155259913867383        5.2146821000591075        3.5152443887394527      H 
 atom  -3.9938734834542573        5.1582479629977698        4.3155421802124421      H 
 atom   3.8694596191110375       0.97695163277233110        3.5484940797994606      H 
 atom   1.0945925293372734       0.85802360623505014        4.2645651640294719      H 
 atom  -2.2925476907514604        3.0701191294052070        3.4865130685237919      H 
 atom   2.4912360236757385        2.9857204087779521        4.3168325916663726      H 
 atom   1.9368966489062347        5.3357329719671558        2.7003773336206010      H 
 atom  -2.8149728185879175        5.4813687963968700        1.8919451611219693      H 
 atom   1.8780477467874281        1.3138944300563857        1.9286772113089312      H 
 atom   3.3535234722892815        3.3883860753504518        1.9158590234517900      H 
 atom -0.86581954043759746        1.1011105234487417        2.7375861721217789      H 
 atom  0.51442265457342717        3.2592428212766320        2.7293764621954240      H 
 atom   5.0091728401422637       0.24841944340799108        1.9468982776193271      H 
 atom   1.6092184566126777        2.3804924163711934       0.95383668390348264      H 
 atom  -1.1419446150836241        2.3281710281883958        1.9517755746916610      H 
 atom   3.1225575978430071        4.6727072790822080        1.2125984265539584      H 
 atom  0.28651410746126671        4.4440612369841155        1.9186364161630398      H 
 atom   4.2536430211528291      -0.25313859193003263        4.2731158343001479      H 
 atom   3.0706756677701352       0.48147689607537253       0.27865992839398679      H 
 atom  -1.9783489551450386        1.8845238843619569        4.3078929223076079      H 
 atom   4.4531791394255524        2.6193213350120210       0.34646315628877239      H 
 atom -0.56796711247227250        4.0563125513433551        4.2934619543858465      H 
 atom  -1.6996467349635960        4.8107644493199633       0.41504746563530315      H 
 atom   2.1920924928279097       0.11393873778733427        2.7257048017071583      H 
 atom   3.9345359716740469        1.8541822594181938        2.5185446023510063      H 
 atom  -2.5261301993979144        4.2678137765694046        2.6978910551695310      H 
 atom  0.81766022318377052        2.0914536750649426        3.5626277800445081      H 
 atom   2.3341358086547377        3.8761439016537063        3.3173344334843917      H 
 atom   2.8072638796989180      -0.28628992087394195        4.6432402876059848      H 
 atom -0.58327409466264291        1.9924249874301359        3.8976202404491334      H 
 atom   4.1506951725476204        1.8654611413178672        4.6543221668378543      H 
 atom  0.82002110016091523        4.0613249285353419        3.8581991267589850      H 
 atom  -1.9523697167659397        3.9516456426511404        4.6727263725209403      H 
 atom   3.5991887712264412       0.17724819472048833        2.3044384479107989      H 
 atom  0.74654741238637512        4.2435698234425140E-002   3.0945479975743542      H 
 atom   5.0358800185383075        2.3736962318510377        2.2694655312775658      H 
 atom   2.1847235177347089        2.0915769311337025        3.1112529050463515      H 
 atom  -1.1252680473307120        4.3880805204776268        2.3062266821436075      H 
 atom   3.6145317844104072        4.2560473550547293        3.1261436794363489      H 
 atom   6.3908205304214700       0.32100691153367278        1.5517981872499838      H 
 atom   1.6324033567245735       0.43574179544810254       0.72819160736736921      H 
 atom   3.0516332575851282        2.5764935579041963       0.72304728324807555      H 
 atom   4.3533052049984455        4.9554646699167533       0.62110728027738549      H 
 atom  0.24556877391364043        2.4114919257447358        1.5327229895914061      H 
 atom   1.6911060150681305        4.5713816516305581        1.5219165433271611      H 
 atom   1.3963912414836708        5.7283274225843854       0.73858503876446002      S 
 atom -0.34415165976477563       0.70798733845322848        4.6005238303036347      S 
 atom   6.1140843577889417        1.5312332285727854       0.75797183862225925      S 
 atom   1.1050300055785183        2.9184346020870606        4.7113167176067243      S 
 atom  -1.8111411677557396E-002   3.6339890452216874       0.74220889173363302      S 
 atom  0.53117887684795517        5.2978284898387678        3.1013318668341943      S 
 atom  -2.3088707007646772        5.1272173695969059        3.8608333306691835      S 
 atom   5.2903795307673214        1.0723704202872486        3.1281057733190782      S 
 atom   2.4851880075029369       0.93465746528026072        3.8812037189544002      S 
 atom -0.86596354650105589        3.1753437181898270        3.1132189384795290      S 
 atom   3.9225993561534684        3.1026794905195674        3.9930027810443289      S 
 atom   3.3634897579119687        5.4643085886136209        2.3660159405382806      S 
 atom  -1.4112979253712878        5.5859460189556431        1.5533806851424343      S 
 atom   3.2906729243716164        1.3063416610081584        1.4406215799577575      S 
 atom   4.7218336865122543        3.5029260311519161        1.5046142647947662      S 
 atom  0.52600049131086224        1.2528081092410386        2.3618949885407798      S 
 atom   1.9040334917753390        3.2914247742974574        2.2246084702035618      S 
 atom   2.6143287131475517        4.9108480662179197        4.7017403569219764      C 
 atom   7.1962103903255565       0.29032030416348059       0.43550567757502867      H 
 atom   1.9578810006692848        4.7409120091346448        3.9195439613963989      H 
 atom   3.3769103169458510        2.5182908696208792        2.8975212459747222      H 
