 # 7 angstroem -1100.09945135599
 lattice_vector   2.5429479019319192        0.0000000000000000        0.0000000000000000     
 lattice_vector  0.72716435701863558        2.4351473720718393        0.0000000000000000     
 lattice_vector -0.76122468788006259      -0.56725709234505051        2.2875250494110233     
 atom   1.8551527802542114      -0.13899841046387126       0.94137925944444278      C 
 atom   2.1699132042024400        1.9873126504536851        4.8087174192447749E-002 H 
 atom   8.2361749598466788E-002  0.43636942273407986       0.58912947864513476      H 
 atom   7.9360575086243154E-002  0.42917628876904917        2.0806519483746766      H 
 atom  0.37860961548699901        1.5175711840413550        1.5210632919124878      H 
 atom   1.2032012797248837        1.2715444911115110       0.33651322080910240      H 
 atom   1.2040841923809400       0.40581881426045313        1.5213970833367361      H 
