 # 10 angstroem -11939.3814228222
 lattice_vector   3.0071168179368102        0.0000000000000000        0.0000000000000000     
 lattice_vector  -1.1525964148290135E-004   2.8357967556024839        0.0000000000000000     
 lattice_vector  -4.7752829453780510E-002   2.3253254746141545E-004   2.9280949587556555     
 atom   1.5477854711356027        2.6971413601613095       0.34366095245364586      C 
 atom   2.1208921600155736E-002   1.1263758650940621        1.8069554595689821      S 
 atom   2.6488828704516485        2.6515101122695923       0.14243078981926127      H 
 atom   2.0253938011457202E-002   2.5238791369895468        1.8070343057066183      H 
 atom   4.4225532984855070E-002   1.2764454181233986       0.34276609134020880      H 
 atom   1.6914207285536791        2.1760539072753855        1.2397012566781094      H 
 atom   1.5481620297492633       0.90924376026663689       0.34276374591676556      H 
 atom   1.5263945784976058       0.97203433242131876        1.8072813939581363      H 
 atom   1.3554426567840008        2.1744660263850206        2.3765260292518362      H 
 atom  0.44593728270014044        2.6528000346740259       0.54207774786251173      H 
