 # 13 angstroem -33582.2057549451
 lattice_vector   2.5440868115701947        0.0000000000000000        0.0000000000000000     
 lattice_vector  0.87533524774700056        2.4026362800524441        0.0000000000000000     
 lattice_vector  -5.6622071448266087E-002 -0.19381901929489267        6.9086367468366374     
 atom   2.2319968677632396       0.40866166484970690        1.8648703397974697      C 
 atom   1.4894840528542357       0.16367539270358658       0.43659350508435663      S 
 atom  0.57433469204022991        1.1240357395974461        5.3564679819972723      S 
 atom   1.5146023616393389        1.7991049993707899        3.7749272897394182      S 
 atom   1.4669874537391043        1.7781233444341042        6.1320963595639348      H 
 atom   2.3232809901303679       0.57566396353633020        6.5009910033650335      H 
 atom   1.2901272256209333        2.0277107705623756        1.8655028519235535      H 
 atom   1.5911352494097519        5.0708154808868457E-002   5.2779595504468420      H 
 atom   1.5108508932088076       0.17796582622478269        2.6175328185998303      H 
 atom  0.73734260996119161        1.4084629681315297       0.48170915030120243      H 
 atom  0.57674443739962222        1.1275574169811804        3.1239399108040891      H 
 atom   2.1442786692017899       0.46034633561341987        3.8944598480022488      H 
 atom   2.7611337228453481        1.2886804685552122        1.9274301440685015      H 
