 # 11 angstroem -11951.3417650843
 lattice_vector   2.5877264140455756        0.0000000000000000        0.0000000000000000     
 lattice_vector  -1.0270745901158529        2.4208374376957797        0.0000000000000000     
 lattice_vector   2.1409059636589144E-002   3.1939592759080267E-002   4.2230295061433019     
 atom   1.2823423429890124        1.6898214323580019        1.1821297517167049      C 
 atom  0.64969428017137687       0.34235419394534261        3.2924602715439644      S 
 atom   1.6532285215066840        1.2740452208457658        2.0674310038320969      H 
 atom  0.17511605183866696       0.19887545935608808        1.0161227990849504      H 
 atom  -1.2650460338369099E-002  0.81265674489024886        2.2851902237717772      H 
 atom  -8.9706115685276228E-002   1.0213963965140374        4.1498960941765830      H 
 atom  0.44441643383052643        2.2299897590672586        2.4246121752379657      H 
 atom  0.36563091883233328        2.2091581102781270        2.6751185406212546E-002 H 
 atom   1.5102935007116105       0.93847959198322373       0.49911167640200033      H 
 atom   1.3918574019053109        1.5737335395489869        3.3481022790962696      H 
 atom  0.25483952879962568        1.7822042622652250        1.2612918366180967      H 
