 # 22 angstroem -45509.5941189493
 lattice_vector   4.5340330684710315        0.0000000000000000        0.0000000000000000     
 lattice_vector  0.15239384144356921        5.3452382431632941        0.0000000000000000     
 lattice_vector   5.3112253026290413E-005   5.3596956487136476E-005   2.6833456245153404     
 atom   3.9230045687032491        1.8494534878674074        2.0539108583522858      C 
 atom   2.4555760476759896        5.2949077553239690        1.3475659548225574      S 
 atom   2.6153155826158971        2.5984893932392654        6.1601939172735414E-003 S 
 atom   4.1177056788381359        2.0455282711571177        1.0598911792251091      H 
 atom   3.2721121411241842       0.66152754072712383       0.72790505463956956      H 
 atom   3.8967321080311428       0.82205810408271207        2.2502480124690472      H 
 atom   2.5264272414734115        1.7192734565881702       0.96207912568483267      H 
 atom  0.99611172702484541       0.70048270176683791       0.71259381339230099      C 
 atom  0.94126070483957369        3.5188539392967177       0.68861489465356185      S 
 atom   4.1299007746934331        4.3757064178683178        2.0304969784876143      S 
 atom   2.4539471066562371        3.4626228319588370        1.6892340077707950      H 
 atom   1.5795554605638706        4.5961608433442747        2.1111688830716711      H 
 atom  0.80168194132904447       0.50531798206531164        2.4018125822345304      H 
 atom   1.0219912084849321        1.7277192925066633       0.91067154436620890      H 
 atom  0.15203888084163719       0.37275939750717435        1.2226761726648756      H 
 atom   4.0821622874989325        4.9998279928612526       0.53789223432331157      H 
 atom   2.6181850178723161        4.4316206060023635       0.34660700026532115      H 
 atom   2.3932763157179902       0.82904665242940145        2.3034149879267947      H 
 atom   3.4909717582128952        3.2983633619701980       0.76883770982008814      H 
 atom  0.23337501736543181        2.1755231626695317        2.5642892117077007      H 
 atom  0.98866540380562506        2.8988297737594864        1.8820018019788207      H 
 atom   1.6465258657455129        1.8875870012057414        2.0699731509690187      H 
