 # 18 angstroem -45461.617210797
 lattice_vector   6.1886983002952718        0.0000000000000000        0.0000000000000000     
 lattice_vector -0.26348482781920995        3.7160852894754086        0.0000000000000000     
 lattice_vector -0.55961036798253327        7.0960759820845432E-002   2.5708384572406273     
 atom   3.2873383664752196        2.4789069323381905       0.96041669328071566      C 
 atom  0.98715754301840009        1.7595316788879352        1.6252337004022277      S 
 atom   4.9930217137465212       0.73296735831440418        1.3895976812822715      S 
 atom   4.0819197971374894        3.0441247532184068       0.60048259258788861      H 
 atom   1.9394985206557993        3.3209172516270953        1.6544074210730251      H 
 atom   1.4369428389875989        2.3459942014292579       0.39786103648483367      H 
 atom   5.2398742202138928        2.8952987770330303        1.3303698692794896      H 
 atom   3.5319760586072051        1.1429160550528115       0.71778422828415445      C 
 atom  0.95389527107358629       0.20142162371108718       0.30263935678860315      S 
 atom   5.6313997955917605        2.1665475332613164        2.6769804792179944E-002 S 
 atom   3.1955153884193055        2.7317089322848540        1.9590721688185186      H 
 atom   2.5071596552405402        2.8832200432080173       0.41837245661635214      H 
 atom   1.9811350306083628       0.11148703250377744        2.1466539506694744      H 
 atom  0.35306423192614489        3.3085433755469293        1.5796718330133257      H 
 atom   2.2094114483315916        1.5826218212571568        1.9767033791419943      H 
 atom   3.2101684339908663       0.89148240350024943        2.3130726684728873      H 
 atom   2.7278814989789462       0.53056236046588978        1.0102245069253057      H 
 atom   4.1396437694009487        3.7548644919728726        2.3899415976943867      H 
