 # 14 angstroem -13004.0127450976
 lattice_vector   2.8070554299949135        0.0000000000000000        0.0000000000000000     
 lattice_vector  -4.1600602746902516E-003   2.7950448380449813        0.0000000000000000     
 lattice_vector  -1.3910467843666625        1.3923137714666038        4.4230528104003559     
 atom  -1.3074605989871118        2.1082828197659365        4.3747887127935563      C 
 atom -0.17312010539096886        3.5114030021571478        2.9175709398726468      C 
 atom   1.3704973861035450        1.9833930384391538        1.2769046097860359      S 
 atom  0.25733525181514655        3.0771532678796536        2.0977438205095740      H 
 atom   1.3424606117475040        2.0875565579784880        2.5772207276712056      H 
 atom  -6.2493832615050780E-002   1.7463881083310449        2.8419113671142355      H 
 atom  0.93649208263069494        1.5986723987527665        3.6780786953456066      H 
 atom  0.16769960032500036        3.1866013840613325        3.8441006825804469      H 
 atom -0.30377804193402719        1.8783844622535510        4.2833340731218845      H 
 atom   1.3895040416891551        3.1350367652795765        4.3110901675673325      H 
 atom   1.6123452724810949        3.3546704684605255        2.9122402301359962      H 
 atom  -3.8403468300975234E-002   1.9149081502461118        1.4273795392583279      H 
 atom   1.3798083609983764       0.59317769029471235        1.4357785328702259      H 
 atom -0.19214267042336636       0.45960002569093944       0.90258100597457991      H 
