 # 22 angstroem -13099.5386422502
 lattice_vector   3.7337134221223116        0.0000000000000000        0.0000000000000000     
 lattice_vector  -1.6223670099014000        3.2212267626669453        0.0000000000000000     
 lattice_vector -0.12610365903655560       -7.1240867999536273E-002   3.8778402162408931     
 atom  0.20271387064234561        5.7082120761787362E-002   1.4257334066229563      C 
 atom   2.4301945551321391        1.4249622043720498        3.4152110603134807      H 
 atom  0.35719284127100276        2.3734534693896618        1.2518318478127937      H 
 atom -0.27808471394598905        2.3001268202560690        3.5386016161718290      H 
 atom   1.7910134252081622       -8.5714730520982307E-004   2.5495882522967546      H 
 atom -0.62978482833544680        2.1672305109267840        1.4473028124760936      C 
 atom   2.8652088511047134        1.4734016396787359       0.73458358572233595      H 
 atom -0.92506657869504294        2.8259675891690166        3.4049667167305704      H 
 atom   1.1398159375473216        1.9367698952494876        3.4126991828953455      S 
 atom   1.8471472074551674       0.39069942031766908       0.66324149807174226      H 
 atom  0.95464389103467906       0.52920426124202768        3.4193694679547679      H 
 atom   1.6697016155714475        1.0897765051077661        1.4852540180851943      H 
 atom -0.47906899740755760       0.91444968701369655        3.3299790332397752      H 
 atom   1.3371694170007506        1.6718488133071023       0.94877851248512834      H 
 atom  0.42673203718668806       0.70637783027400325        2.1893473946976338      H 
 atom   1.3143680119848951        1.8001103293293053        2.0629248945926433      H 
 atom   1.3123886271052596        3.1039999095663386        1.5893320290787902      H 
 atom -0.67508139231004127        1.6681415538126669        2.3464128799877839      H 
 atom  0.25203299973036292       0.60969844116343563       0.55735137986607486      H 
 atom   3.3473976810504693        5.2806899681069441E-002   3.2271363344021555      H 
 atom   2.2134119523546780       0.56145368042047150        2.3373041137766406      H 
 atom   2.4249841688456586       0.25328863927727752       0.22631546621077886      H 
