 # 17 angstroem -13040.0921946129
 lattice_vector   4.2275295251807670        0.0000000000000000        0.0000000000000000     
 lattice_vector -0.65458676207916744        3.7521236979299064        0.0000000000000000     
 lattice_vector   2.3247089963677234E-002  0.85019109863359843        2.4367186447133888     
 atom   2.9392929480123136        1.7952378752066191        2.3881888971756102      C 
 atom   1.8071199593372067        3.5579169020358048        1.9067095134958814      H 
 atom   2.8541762741597365        1.4872431175182150        1.4097221839910763      H 
 atom   3.2959591125359635        2.7640746031796377        2.3675881085348496      H 
 atom  0.89366147982869659        3.6034638236661136       0.72417990544646438      H 
 atom   2.9848990615832025        3.7739174278488830       0.68060418275963142      C 
 atom  0.81898788232041564       0.94562378888399301        1.4990021598307870      H 
 atom  -3.8274927663257484E-002   3.4166547334259523        1.8510355287955400      H 
 atom  0.83480561834213363        2.3606873899359808       0.32081228644733428      S 
 atom -0.27750728752883036        3.7705057692847319       0.31619624058371504      H 
 atom   1.9505856200744400       0.95307267839232679       0.31554406537401058      H 
 atom  0.80470444756320680        1.9674999796884984        2.3525880014430820      H 
 atom   1.7328817498859783        2.1520501018454312        1.2239526391239954      H 
 atom   1.5455968502725952       0.86676425038604765        1.5769478595764985      H 
 atom   3.0721205161585181        4.0855974385640632        1.6581415278768099      H 
 atom   2.6307817670283522        2.8045883856957854       0.70627687200813760      H 
 atom  -9.8734564797788998E-002   1.9943880636483080        1.1799917362511962      H 
