 # 16 angstroem -13027.9741502501
 lattice_vector   5.9280931315291543        0.0000000000000000        0.0000000000000000     
 lattice_vector   1.0521489885158422E-002   2.4492687533003790        0.0000000000000000     
 lattice_vector  0.47534199332420601        2.3513393965071662E-002   2.5334782701237701     
 atom   2.0733784596695539        2.3539255104535397       0.71065897268750178      C 
 atom   2.9391519695699397        1.1500109506762572        1.7482907462977599      H 
 atom   3.6197778828073157        1.2399371984625955       0.32811181471499973      H 
 atom  0.73305533658723077        2.2917006632160737        2.4640192645783943      H 
 atom   4.8716973473551066        1.1492956590723389        1.8852349307541041      H 
 atom   1.8691896334237887        1.1284042885172538        5.2499045500906519E-002 C 
 atom   4.5009963690506156        2.2513634490043861       0.50098959291922374      H 
 atom  0.60998121486148127        1.2726056372433689        1.2934000666608350      H 
 atom   5.6001317394866899       0.37771716545628115       0.99831026967279179      S 
 atom   1.3834790475688878        1.1487507924436504        2.1990631381306960      H 
 atom   1.4697140425571109        2.3815964882738014        1.5359744346346946      H 
 atom   4.0208612316671317        2.0772824137497330        1.7915177805010167      H 
 atom   3.0263351893560362        2.3632931623805087        1.1008829802414617      H 
 atom   5.2742634424695831        1.2826990844469313        6.8485902400924864E-002 H 
 atom   3.8693520075758276        1.0183467237698578       0.98282168057015296      H 
 atom   3.8899634690877649       0.19637340722794058        2.2305509747015129      H 
