 # 24 angstroem -45533.176513048
 lattice_vector   5.0287074914809100        0.0000000000000000        0.0000000000000000     
 lattice_vector  -1.6715422364301264        4.9707743045439958        0.0000000000000000     
 lattice_vector  0.78336332564238265       0.29791833852141303        2.7605255992388851     
 atom   3.5223158612607923        4.5310433090718369        1.5491812947991199      C 
 atom   3.4474106235601094        1.6997812983268104        1.7115306424979499      S 
 atom  0.14816106164516846        3.1605614976645673        2.7120134709122437      S 
 atom   2.8869540635821633        3.0159692128868509       0.25003716250253094      H 
 atom  0.50709724005433277        4.3331953577253373       0.87062713840359307      H 
 atom  0.31348714291863272        1.5220530360753184        1.4616648347640375      H 
 atom   4.6170598876417275       0.69884665509448529       0.32621373207981014      H 
 atom  0.72876952490216995        1.6928108436744873        2.4125407759346524      C 
 atom  0.88638987947628345        4.9418371605470801        2.1484872931350791      S 
 atom   1.5922217048864220        3.0793245175612154       0.63167231165357052      S 
 atom -0.93795044261523630        4.7412522954659577       0.70710230282674347      H 
 atom   3.3374666869633294       0.28382110227673585       0.37463049004826243      H 
 atom   1.5853412355855947        1.7655530623328046       0.75993915723479499      H 
 atom   4.5120372216692504       0.38891430728184284        1.6186404775583612      H 
 atom   2.0804997384195638        4.6228521188759517       0.45404237094145122      H 
 atom   3.2776562417038799        3.5118986035830213        1.5324068828789541      H 
 atom   1.5150290515432792       0.75344323315476081        1.3326258250779421      H 
 atom   1.6167092161394467       0.75410776208441321       0.51757098630902076      H 
 atom   2.0511791195061573        3.0823715228647139        2.0077404889672228      H 
 atom   3.0044801354682606        1.4914852284889140       0.36452268259482173      H 
 atom   2.0659192444815107        4.3863072942558947        1.9322546656238484      H 
 atom   1.7743057034125307        1.7719607321227322        2.3198946186875653      H 
 atom   4.0752741936841526        4.6811843872514212        2.4179781817105699      H 
 atom -0.24603309452944983        3.1530543147226848        1.3706928939447023      H 
