 # 16 angstroem -45437.9072269713
 lattice_vector   8.4354555709072621        0.0000000000000000        0.0000000000000000     
 lattice_vector   3.1894426339793280E-002   3.0815810234482397        0.0000000000000000     
 lattice_vector  -3.3575075903571720E-002   7.0568559287810684E-003   2.1268517591030829     
 atom   7.8580443124104065        1.1474886049997863        1.8736866214035703      C 
 atom   6.0473689411309470        2.3929321030107147       0.80379238020916788      S 
 atom   1.0046600156481049       0.69774080015558593        1.8762820646304113      S 
 atom   6.2617022322190223       0.65899363816287770       0.71642315364808273      H 
 atom   8.2692082510507827        2.7593434340734797       0.82132469489327686      H 
 atom   1.2065714290301484        2.0595044382371426       0.89221075369334624      H 
 atom   5.8450735339742055        1.0308624864771032        1.7879142049895904      H 
 atom   7.6294010483431576        1.9430989109677694       0.80643691814722396      C 
 atom   2.6306093868902383        2.3208317416132691       0.80884327408048451      S 
 atom   4.4212573340759782       0.76982914469490638        1.8711766590029804      S 
 atom   2.5692213321482962       0.91685527589941118       0.85644958617488631      H 
 atom   4.4829766587357414        2.1741571733225826        1.8239947197009154      H 
 atom  0.79043528917827022        2.4315274865653587        1.9636276626493223      H 
 atom   3.9993579640629719        2.4173555147371673       0.74390538994381805      H 
 atom   7.2183336938768488       0.33120012454711362        1.8588251741764641      H 
 atom   3.0523907815291857       0.67222122778578597        1.9364275107428908      H 
