 # 18 angstroem -23855.9503517
 lattice_vector   2.8543384645146386        0.0000000000000000        0.0000000000000000     
 lattice_vector  -3.2182430035977497E-002   2.8541510613420122        0.0000000000000000     
 lattice_vector   8.3685305284675017E-005   9.4336274969539623E-005   5.8347867158308810     
 atom   2.2067942523043804        2.5833795180370149        1.6647149829561292      C 
 atom   2.5010279057779550        2.2928428599969291        4.5821433352115442      C 
 atom  0.94294918918470405        1.0106348313665530       0.20617663119957724      S 
 atom  0.94298031809439076        1.0109771193838684        3.1235179739675552      S 
 atom  0.86958655676617391        1.0842377134807779        1.6651370335520808      H 
 atom   1.0168680885262558       0.93846787598715053        4.5825453180911202      H 
 atom   2.6154728108052776        2.1794166782040674       0.81143637617106101      H 
 atom  0.66506626024286586        2.4553022024174180        4.5820890232969340      H 
 atom   2.3501519419487966        1.2727328411389436        4.5819888677782181      H 
 atom   2.6156309492330965        2.1797790617951818        2.5180714424328263      H 
 atom   2.3703955545907545        1.0109892432148946        3.1231924085307852      H 
 atom   2.3903552655028739       0.74932327460720161        1.6643971054566118      H 
 atom  0.92676843917375085        2.4375643279629569       0.20584648422152838      H 
 atom   2.0925712278074462        2.6968413013395804        3.7288070473741168      H 
 atom   2.0927249257250162        2.6962060026261656        5.4358111689630375      H 
 atom   2.3699474454612903        1.0109835309380137       0.20570903200250765      H 
 atom   1.1885372510936978        2.4211553600052462        1.6646577984610860      H 
 atom  0.92697715040192052        2.4378715981207648        3.1234710226933542      H 
