 # 24 angstroem -23927.7533253533
 lattice_vector   2.7824293109791847        0.0000000000000000        0.0000000000000000     
 lattice_vector  -2.8049233946001385E-002   2.6274336265338119        0.0000000000000000     
 lattice_vector -0.34111527073051867      -0.13448975569042415        7.5563688329275953     
 atom   2.4431961531943456        1.2820819561940979        4.1187580684402914      H 
 atom  0.30219775767793844        2.2005252540991167       0.60445424820793303      H 
 atom   2.1575310833039985        1.1192161347753482        5.6145929298500654      H 
 atom   2.3936101344718930        1.1547235477957911        2.7688289804963095      H 
 atom   2.5537615757171346        1.0996937298555178       0.89720027975598904      H 
 atom  0.29812381353061673       -2.0912960363822609E-002   3.3468084313656683      H 
 atom   1.4857155858090678        2.2220981235136001       0.84223009829488926      H 
 atom   1.0685726963337099        1.1164792196029967        4.7821113548709455      H 
 atom  0.79483290340219859        1.1767893829244795        3.0067483876855796      H 
 atom  0.88689600114578737        1.1550513426624136        1.6499059349793472      H 
 atom   2.4693994164763122        2.1250441001351401        6.3854632770658517      H 
 atom   1.3253829822072045        2.2773061422904730        2.7135046017498188      H 
 atom   2.0206745749174555       0.57895391667752372        7.1379659953970434      H 
 atom  0.20979839822437146        2.2218025827698873        1.9611150329264841      H 
 atom   1.5451911658532820        3.4785562283224915E-002   4.0291955448690073      H 
 atom  0.82647134285651569       0.76992483271050027       0.26394306603264506      H 
 atom   1.1654243493817766        1.1891164415295397        3.6331808172533004      H 
 atom   1.0946254118518841        1.9595187731983157        7.0482235345309032      H 
 atom   1.3805966131380683        2.1225565265829984        5.5526582827175357      H 
 atom   2.3728504729637714        2.0516066296407396        7.5343982537423395      H 
 atom  0.39170977658561495       0.30699291530273926        5.5836676245891930      S 
 atom   1.9536959111666696       0.37486179792545804        1.8054435784867111      S 
 atom   1.0538623057245506       0.92953208309277635        7.0013264726582527      C 
 atom   2.4839612363223158        2.3119885599891798        4.1658739795198088      C 
