 # 23 angstroem -13112.2034432373
 lattice_vector   4.8574729575133002        0.0000000000000000        0.0000000000000000     
 lattice_vector -0.66558295853396832        2.5443945189342076        0.0000000000000000     
 lattice_vector   1.5593070131316920       0.45410686390266380        3.8952039921278243     
 atom   3.7189258637285763       0.94170802724214719        2.9093161190563834      C 
 atom   2.5265762275714598        1.6399735657997487        1.5909417747674508      H 
 atom   3.6470670334649897        2.1801875870180956        1.6054924725047757      H 
 atom   1.9039126924397356        2.0863242648950027        3.5552162671235936      H 
 atom   5.5661033518918135        1.5090769542818954        3.3550263048275695      H 
 atom  0.59116010358060633        2.7713235605261080        2.0653880232063999      C 
 atom   2.8981453181157848       0.65630840155492309       0.90733257094031872      H 
 atom   3.0969222505432632       0.52996259509025434        2.2025805838107639      H 
 atom   4.1303021034767315       0.35044066799430784       0.53830467940033622      S 
 atom  0.53400510899091691        5.1012318620077969E-002  0.21498882518396326      H 
 atom   4.6878849672125105       0.73645955538787855        2.6207385822376246      H 
 atom   1.8423622835998048        1.5371847669006773       0.62631938662591624      H 
 atom   1.0146725611690521        2.4592138173369049        1.1681615607640312      H 
 atom   4.6596822183864379        1.4034726292269846        1.1208035422668481      H 
 atom   1.1504861446811754        1.3410782821883860       0.48028908739834242      H 
 atom   3.5203304677303646        1.9605228891013839        2.9917995814744853      H 
 atom   2.0087805340255889        1.9288835822873243        2.0110553215164590      H 
 atom   3.5728419837315832       0.54640220742059820        3.8521197244244783      H 
 atom   2.2014814576703219        1.6386324067491873        3.0616020030246340      H 
 atom   4.7509883332131029        2.0899208726632112        2.3965992232801865      H 
 atom   4.4931359618845992        2.3119012983589418        3.8383266808358520      H 
 atom   1.9160098363103177       0.39487803271785232        2.8372134948319663      H 
 atom  0.81893587206836904        1.1314605739245291        1.8198805898439849      H 
