 # 6 angstroem -45317.2358358687
 lattice_vector   2.1319934653936623        0.0000000000000000        0.0000000000000000     
 lattice_vector  -2.1378801494454120        4.0788351443927997        0.0000000000000000     
 lattice_vector  0.80923331357650674      -0.34468398988164323        4.5191250146252289     
 atom  0.75493303424503233        2.2494412268897750        4.2323316169824183      C 
 atom   2.0141913774524300E-002   2.9018163281423552        1.3394736746182476      S 
 atom   1.7542541069047872        1.1823259733740390        2.2868831420794700      S 
 atom   1.8286967294636511        1.4900174235170534        3.9131506757554360      C 
 atom  -1.2700739427720098        3.5232448059950019        3.1835609673675878      S 
 atom  0.91247732659590819       0.56089739328946464       0.44279624185146865      S 
