 # 12 angstroem -35601.2751474899
 lattice_vector   3.4664607994749566        0.0000000000000000        0.0000000000000000     
 lattice_vector -0.84992944175320806        2.4020806753847630        0.0000000000000000     
 lattice_vector  -1.5568943579075112        1.0433315956715774        5.4873935928803403     
 atom   2.8358410044403599        9.2786338717849290E-002  0.21317418790097420      C 
 atom  0.82594043298477759        2.6132295469510827        3.6915020267005629      S 
 atom   2.3302141624905945        1.5292563946510562       0.27647018538942103      H 
 atom -0.38331815552317744        1.4779492546360189        2.3210027605204315      S 
 atom  -5.5059465652351871E-003   1.0049619092419848        4.5953184160414162      S 
 atom  -1.1089013513613526        1.9468202139571615        5.4230708216722583      C 
 atom   2.3016139717242363       0.34373352499451043        1.4518779953285692      C 
 atom   1.3991102801307378        1.8555525217064461        1.9793883514514099      H 
 atom  0.77435474621129019       0.77907597817454344        2.5836145766962044      H 
 atom  0.49105984088685367        1.4355818735371719       0.88982407843591693      H 
 atom  -1.3384994392301868        2.0118011240219671        3.2611304104381840      H 
 atom   1.2864832983012031       0.57162792261544904        1.3235249579574302      H 
