 # 24 angstroem -25960.4466218254
 lattice_vector   6.7296476383453490        0.0000000000000000        0.0000000000000000     
 lattice_vector  0.26069489923880879        3.6497069019933992        0.0000000000000000     
 lattice_vector  0.13330889204467497      -0.60968599586929340        2.5020562724390611     
 atom   6.0504307824692969        3.0271179686313761       0.31043768780241077      C 
 atom   6.0369290827830691        1.6592024472057145       0.12102781748222723      C 
 atom   4.6408943789335737      -0.23083916685890840       0.99678365541833813      C 
 atom  0.79271449806634431        2.0527584396163898        1.1487071011370327      H 
 atom  0.79154135775419954        1.7978813897420933        1.9929436749019784      H 
 atom   2.5378689822756728        1.5313131836430935        1.2271937869497271      H 
 atom   4.0880136507890885       0.39760698575166359       0.39416775492694428      H 
 atom   4.1642173184345239        2.3341547146655897        1.4114639436270717      C 
 atom   1.8807446625222524        2.2482352068293134       0.21134554247583018      S 
 atom   1.7278493093288718       -8.8104171526607850E-002   1.6533963269286165      S 
 atom   3.8113375775514968        1.8543471033235359       0.56827188375155668      H 
 atom   1.0940881266454403       0.70587914659451623       0.81413745938081838      H 
 atom   3.2965157262419873       0.33237032607912226        2.4264542404710721      H 
 atom   6.8209035950976382        1.2112459335273451       0.61677176467421047      H 
 atom  0.53236745801148233      -0.37599665467845861        2.0677997158602022      H 
 atom   4.9025667828678072       0.33605498065652473        1.8084090384273270      H 
 atom   3.4439452516722771        2.5678713287520822        2.1435085156923521      H 
 atom   3.5670964263050888       0.83374314681619111        1.9193347756013954      H 
 atom   2.8116739805240769       0.33395722858798038       0.86887155364618418      H 
 atom   5.2047057622664443        1.2633575069490757       0.58705143256049053      H 
 atom   6.2544914256167248       0.75514214508769961        1.6470608328478742      H 
 atom   6.1926094068694493        2.8892917261504936        1.9083471416345175      H 
 atom   6.9278904633605913        3.3273131490926842       0.81512237374774255      H 
 atom   4.8096928208903202        1.6933984675579814        1.9007926368614565      H 
