 # 20 angstroem -4306.82278387324
 lattice_vector   2.5266002128552838        0.0000000000000000        0.0000000000000000     
 lattice_vector   8.1517866808080810E-005   2.7211798716278635        0.0000000000000000     
 lattice_vector   1.1995496063736082        1.2967892046155973        6.1945561263430644     
 atom  0.46225077400783726       0.27446397112346588        1.1107957284374823      H 
 atom   3.0757327799442344        1.0868064862945088        3.3885117487461942      H 
 atom   3.2423647801936433        2.3286814876944573        5.4455221502354503      H 
 atom   1.8862207163452098        2.7694036751582320        4.8904355550984686      H 
 atom  0.49567793994118015        1.3456095737788409        1.8319513795455165      H 
 atom   2.1175468073046977        2.7957336457456403        6.1836381980407884      H 
 atom  0.83401714114172987        2.4516143415066654       0.87432203332332126      H 
 atom   1.8617340989554307        1.3667345983180639        4.0844608197017571      H 
 atom   1.6645315651238413       0.98684039220941311        2.6264800239757902      H 
 atom   1.9598729798056440        1.3418055728255973        5.6096986731867684      H 
 atom   1.6293959071276811       0.94037384685415049       0.91290193646999618      H 
 atom  0.59341083290921282        2.5909411377124130        2.3593154617810543      H 
 atom   3.2759936755941417        3.5637793932006612        4.7570138295271720      H 
 atom   1.7883752655617939        2.4067557593035684        1.7800225404645031      H 
 atom   2.1694235091378689        2.3969087487538085       0.27680543344433600      H 
 atom  0.31700769596247858        1.2777467326108405       0.27917378243527041      H 
 atom   2.0046786268271903        1.4023754333332377        1.7624826294336500      C 
 atom   3.1161353026336944        2.7737195408216140        3.3626410051829416      C 
 atom   1.8518501309623636        2.3775918667450551        3.9331985368600830      C 
 atom   2.9797008868731059        1.3471484806232357        5.5899811889588085      C 
