 # 20 angstroem -25911.8272776763
 lattice_vector   6.6281081614868524        0.0000000000000000        0.0000000000000000     
 lattice_vector  0.86682834217178328        3.5493086001014147        0.0000000000000000     
 lattice_vector  -1.7609580626599227E-002  0.92187293020021321        2.3936444905608893     
 atom   5.6030082942078971       0.71280267133282260       0.91634011103271584      C 
 atom   1.1034201372457240        2.0958710405835848        1.6942813372453962      C 
 atom   3.6340612490570519        2.2444682206350861        1.6649499678797675      C 
 atom   2.2863328724943655        3.8951499232230962        1.2081144448692134      H 
 atom   7.1480142443325034        4.1517691620968753        1.7277253094913889      H 
 atom   5.0744438420991385        3.0410793995525496        1.8914689397590112E-002 H 
 atom  0.61282779178657554        1.3322241180388168        1.1597052157132419      H 
 atom   5.8133096504408446        3.0682086922901921       0.75861708394687677      C 
 atom   3.0550981388769802       0.77992522070746706        1.2991249783368408      S 
 atom   1.7097247446937469        2.9666739633529735       0.48483982347201404      S 
 atom   4.0470096123417632        2.4981464169369727       0.73464138385916067      H 
 atom   3.2704377043634238        3.2298739880393490        3.3935079027867944E-002 H 
 atom   1.8587797418845049        1.0534148472229272        5.9878477882307546E-002 H 
 atom   2.8721742678762343        2.8366091312830819        2.1123289964815397      H 
 atom   6.4662925993173541        2.3554272632174333       0.43803211396856473      H 
 atom   4.9722503743838393        1.4494920736134713        1.2445906293815092      H 
 atom   6.0412960376877836       0.95959847106322227        1.8192954512948729E-002 H 
 atom   6.9447029675160570        2.6756728437374950        2.0279000258291453      H 
 atom   5.4444246507159670        2.7706931633666096        1.6652533829623883      H 
 atom   4.4405565066168009        2.1654062521012394        2.3319142629063725      H 
