 # 12 angstroem -4211.919433384
 lattice_vector   3.5733333408313483        0.0000000000000000        0.0000000000000000     
 lattice_vector -0.97064843871710327        2.4903514616799476        0.0000000000000000     
 lattice_vector -0.42857983687355283        1.2251731848574039        3.3288825329677509     
 atom  0.68980019839928008        2.8728099624320396        3.2976003875829720      H 
 atom  0.11131802438810666        1.6403032650132530        2.6102501903408291      H 
 atom   2.6302472198190796       0.84638335896268579        2.2104837234251185      H 
 atom   2.1727255346412071        2.4412085983438856       0.36779571873979472      H 
 atom   1.0578075576271437       0.23369749527244801       0.54635198782698613      H 
 atom   2.1121428371596593        1.0271097747819147       0.94551294517620355      H 
 atom   2.6903026137463231        2.2596450656944724        1.6327477020441985      H 
 atom  0.17139954641859514        3.0537034570449832        2.0327068314640973      H 
 atom   1.9341672172761444        2.3587446337479019        2.3113420732053060      C 
 atom  0.86765239047619303        1.5414150358283181        1.9320045616985122      C 
 atom  0.36187536857513608        1.7460546502817798       0.64686781254641701      C 
 atom   2.8687028663199587       0.92886927674487685       0.26740044562643783      C 
