 # 8 angstroem -47374.5059760767
 lattice_vector   3.9055808926362827        0.0000000000000000        0.0000000000000000     
 lattice_vector   1.9564400303806515        5.7463252831813190        0.0000000000000000     
 lattice_vector  -5.2697674943220658E-005  0.41093398874409320        2.1335241597178474     
 atom   4.1596625650939378        1.0497791938025243       0.20791967092323316      C 
 atom   1.5338819768845280        3.5469556729810141        1.9398274976097347      S 
 atom   4.1705933305111573        5.3816246414189530        1.5865569059088274      S 
 atom   3.4944226210968918        1.7214842777974457        1.1848407679256934      C 
 atom   1.5416298355953626        1.5160018198872935       0.11796978237007105      C 
 atom   2.2177844895032588        5.1762653199588655       0.52046996820747193      S 
 atom   2.2068324626259033        1.2552248285995604        1.2745086014962315      C 
 atom   3.4866429968806245        3.3413437688208973       0.87218388050421991      S 
