 # 40 angstroem -18397.9253560635
 lattice_vector   5.1762223202396411        0.0000000000000000        0.0000000000000000     
 lattice_vector  -3.3400122216238758E-003   2.7275179440041697        0.0000000000000000     
 lattice_vector   1.2331781384607681       -1.2802884367137493        6.2822798669586879     
 atom   1.8021018157635846       0.32246990170133000        1.0451282988562383      H 
 atom   4.4858965885380666        1.1419648072327195        3.4308775736053652      H 
 atom   4.6287376000536726      -0.28469243993833176        5.4125949589072349      H 
 atom   3.1890796061830997       0.24686452239132339        4.9630025714184391      H 
 atom   1.7237403778871532        1.3579919420874134        1.8411608180632444      H 
 atom   2.1449959377745369        1.4861319284068795       -3.4390047138058641E-003 H 
 atom   2.0896403839984519        2.3995279258219586       0.95484254284673331      H 
 atom   3.1507797786841367        1.5190956613610402        4.3333319854612480      H 
 atom   3.1625157593096591        1.3446564962214247        3.0682357592455571      H 
 atom   3.3168688018562236        1.4970371682251844        5.7811102391761464      H 
 atom   3.1348119209008924        1.0469665403658264       0.48656790526011562      H 
 atom   1.8779309871611327      -0.10352427686456782        2.4043393714843178      H 
 atom   4.5678538542393277       0.96654319647583686        4.7719948168259334      H 
 atom   3.2308314510449212       -2.2216959341329952E-002   1.8805620160685044      H 
 atom   3.5501068418262505        2.3327203034857202       0.18182748180137048      H 
 atom   1.5031394417433082        1.2957059495220058       0.24176842281816488      H 
 atom   3.1777597618046181        1.3162801603342391        1.7847501230810794      S 
 atom   4.4736692490998298       0.10753251900734649        3.4355264976065754      C 
 atom   3.1598155025117181      -0.22512683825018548        4.0267805847821423      C 
 atom   4.3440301175147029        1.4740987189083969        5.6330784723312952      C 
 atom   4.3961251830989694       0.30893043224575306        1.0225559847178880      H 
 atom   1.8469303777095598        1.1480552603620642        3.4521412533486413      H 
 atom   2.0134684784327028      -0.29430200519728261        5.4524345947942940      H 
 atom   4.5748136134075397        1.3889070521955471        1.8881111080197888      H 
 atom   4.5008763902456490      -0.11289861099387596        2.4138304279327460      H 
 atom   2.0172952691352455       0.91294261921547915        4.8694185537497710      H 
 atom  0.88196086428558751        2.4304484997718534       0.30500517647674480      H 
 atom   4.2729671800248843        1.2482420599021911       0.22300824753418172      H 
 atom   1.8677630227569584       0.11729428243840852        3.4285348499941217      C 
 atom   1.7345898276147542        1.4711205866283481        5.6790942293495243      C 
 atom   5.7833591927872643       0.17331117653252023        4.9311302508353130      H 
 atom   6.0972753156760868       0.24776221911158675        6.2165629188461660      H 
 atom   4.6326496573281819        2.3739983635204580       0.94086889999713141      H 
 atom   5.7737112864769706        1.4513720068059828        4.1761772906976855      H 
 atom  0.56306718611598239       0.98525380515335947        2.7189832082084613      H 
 atom   5.8884888528624062        1.5007125476531862        5.6930585670488929      H 
 atom  0.42396557995871276       0.88764131015584979       0.92822490783455325      H 
 atom  0.62656486481783280      -0.26518998273980482        1.7802801942579942      H 
 atom  0.59537168167298615        1.4304259185447765        1.7997237628214051      C 
 atom   5.7666981801654300      -0.26690397891001910        3.9867321854487643      C 
