 # 12 angstroem -143.480732142222
 lattice_vector   1.6511227909166333        0.0000000000000000        0.0000000000000000     
 lattice_vector -0.82512215269658595        4.3486998054694492        0.0000000000000000     
 lattice_vector   1.9651172262250151E-004   3.2051891853718408E-005   2.5810525193525753     
 atom  -6.3067569790313929E-002   3.7507611170492217        1.2321364303254756      H 
 atom  0.76268999319402964        3.7506358372503805        2.2667183915216151      H 
 atom  0.76201867631501397       0.10459684367744461        2.5228391355312159      H 
 atom  -6.3529229221185063E-002   2.3013075022856873        2.2667839713756952      H 
 atom  0.76205724585995127        3.0038841749557985        2.5228469605514685      H 
 atom  -6.3411964724500919E-002  0.85177819714348257        1.2316602382756261      H 
 atom  -6.3540978297323122E-002   3.0036969474603588       0.97643396310164843      H 
 atom  -6.2883770800395006E-002   1.5542743949298508        2.5226089113165013      H 
 atom   1.5872546798902973       0.10443646161646236       0.97640139850490348      H 
 atom  0.76236552176106698        1.5542720928793921       0.97596609962349523      H 
 atom  0.76229835345358676       0.85143599370692447        2.2667782433296564      H 
 atom  0.76165989031552128        2.3013481553949715        1.2320129818961705      H 
