 # 34 angstroem -22013.243906224
 lattice_vector   5.6284349342200919        0.0000000000000000        0.0000000000000000     
 lattice_vector   1.1268153755049641        3.5466783381951861        0.0000000000000000     
 lattice_vector  -1.5677194645445467       -1.3506565863969755        3.2722604609781816     
 atom  0.31246517792408041        1.4561692374305442        1.8028981276587712      S 
 atom   3.1285499770215726        1.4545917581125716        1.7991548802382413      S 
 atom   2.9489435161234248      -0.69878157276774311        3.2217450695945788      H 
 atom   1.4021371322816205       0.92778961069444177        1.2920004149303894      H 
 atom   2.5622506522477511        1.5997118692051711       0.61829579230952925      H 
 atom  0.76652407153452728      -0.22836375752915059        2.5418596038073509      H 
 atom   4.8510890548731345        1.9847918746316526        2.3119376011663979      H 
 atom -0.86055290022759690      -0.72320917459617884        3.1688169875660210      H 
 atom   1.5203019316076476       -3.3284295560894413E-002   2.5036211581822818      H 
 atom  0.13555888393873164      -0.69770517670691223        3.2246623171351234      H 
 atom  0.89139354536324156        2.6463530801547663        1.6916791074953279      H 
 atom  0.35994414141814557        8.8895069488984763E-002  0.43675385835095820      H 
 atom   3.6934626568836504        1.3092612734298337        2.9809526590075430      H 
 atom -0.26434085033797844       0.26536555035962378        1.9142694575822543      H 
 atom   4.9927220594891777        6.4828607106333216E-002  0.37753763309039751      H 
 atom   1.9541523721083440      -0.72589966960841612        3.1655372082075899      H 
 atom   3.7063782551504398        2.6449433490310947        1.6869259829920373      H 
 atom   4.2330345795842694        1.9822310295869496       0.28039485423702909      H 
 atom   2.1779798695877637        6.3152419636121629E-002  0.37628308247308434      H 
 atom   3.5795864058167988      -0.22931183491653301        2.5393755576151866      H 
 atom  0.77566252438772287        2.2796302748241533        4.9828126897463805E-002 H 
 atom   3.1746022594337386        8.6320535751830338E-002  0.43383433470053684      H 
 atom   1.9224303793418112        2.9453860541824350        1.0982451454067299      H 
 atom   1.5500614612849188      -0.40792223543235384        1.0593725735590398      H 
 atom   2.0386137216679359        1.9825171628519060        2.3100859464314274      H 
 atom   5.3755883746914570        1.6008174139908109       0.62093133764764519      H 
 atom   2.5506456809482976       0.26396687190611545        1.9100820061969597      H 
 atom   4.2181347431255780       0.92551489920195407        1.2897811264904970      H 
 atom   4.7385887837442988        2.9461689311841091        1.0942756925972694      H 
 atom   1.4172734674541980        1.9833765050773968       0.28510789578397228      H 
 atom   3.5911801369951983        2.2777422604026825        4.4841255664385217E-002 H 
 atom   4.3667233719429248      -0.40717406961274871        1.0601630403524496      H 
 atom   4.3335436637777125       -3.3573275126614135E-002   2.5070212183854799      H 
 atom  0.87828585529079650        1.3104058393652225        2.9838789459924642      H 
