 # 6 angstroem -10875.273533834
 lattice_vector   2.6530634376623285        0.0000000000000000        0.0000000000000000     
 lattice_vector  -1.0939609748909302        2.4140993570014158        0.0000000000000000     
 lattice_vector   1.0124017612402592      -0.60020147048131256        2.3855132064388522     
 atom   2.2271641365487103      -0.39863838430081372        2.2518533608561677      S 
 atom   1.3048142640314084       0.34916124332357384        1.4943463401209245      H 
 atom   1.9132685449545674        1.8534436191312416        1.1105358071176998      H 
 atom  0.22477329944440008        1.0348527739027524        1.4351223906341695      H 
 atom   2.4672459580529735       0.89846204700203292       0.63801491639700225      H 
 atom   1.1267372355774161        1.7226124702576115       0.32475785236571098      H 
