 # 8 angstroem -86524.3715949407
 lattice_vector   5.0063127413412820        0.0000000000000000        0.0000000000000000     
 lattice_vector -0.24663263142422018        5.9686873936858138        0.0000000000000000     
 lattice_vector  0.22283444189396190       0.16688035529708778        2.0436130466540443     
 atom   1.6710100098685654       0.68516542259857527        1.4090579914447434      S 
 atom   3.9395800709820872        3.5858438117157578       0.38536889189591245      S 
 atom   2.0655349632409470        2.8190066882987592       0.13161802350906412      S 
 atom  0.80782510516041772        4.3528150247688231       0.64204702594180385      S 
 atom  0.41362963734674096        2.2188911851197157        1.9191583386901454      S 
 atom   3.5454734528931096        1.4517316532279432        1.6633268865594431      S 
 atom   4.5565720909511107        5.8866783029388783        1.1528332638367629      S 
 atom   2.6823234161000742        5.1199333825574085       0.89746098690589871      S 
