 # 20 angstroem -44470.3601454638
 lattice_vector   2.5157087349601959        0.0000000000000000        0.0000000000000000     
 lattice_vector   6.6478489026833266E-004   4.0286683035962447        0.0000000000000000     
 lattice_vector -0.85165323644515445        2.0139411764881388        5.7908062733423771     
 atom   1.1285591297403901        2.1520079381471162        5.1287918304168842      C 
 atom  0.21860964040574776        4.1674379387097371        4.0097464110985390      S 
 atom   1.9951378716033268        2.1527992914209610        2.8760129539876895      S 
 atom  0.37395819388657919        2.1524012495299152       0.45586380029353568      S 
 atom   1.1154142971593715        4.1674702668923009        1.5896715506068615      S 
 atom  0.28910286769359234        3.1651118732672159        2.2308163366420359      H 
 atom  0.43036604732983164        2.1547309370234444        4.2062394889850072      H 
 atom   1.1890116118904124        2.1522909098888925        1.7064503224902969      H 
 atom   1.8174732602937831        2.9578426366793154        4.6725554491459294      H 
 atom  0.29206755254668859        1.1422693051064134        2.2343548033669891      H 
 atom  0.43926268130314455        2.9596019671739429        5.5835046110548578      H 
 atom   1.1281498429726327        4.1656357654827136        5.1282568331710721      H 
 atom   1.8191976690969343        5.3741771072553712        4.6748701629274354      H 
 atom   2.0230738028357806        3.1227942332424896        1.0209608436161415      H 
 atom   1.9149320122280820        4.1651932667073908        2.7619135039984628      H 
 atom   1.0919211242558093        3.1986492179714503        3.4497750639044589      H 
 atom   2.0197313614528363        1.1816365920790879        1.0194038347059324      H 
 atom  0.16271357941362519       0.13771694645965149       0.25999793207284011      H 
 atom   1.0936831385539976        5.1364253583944315        3.4511094142087240      H 
 atom  0.44085664140012937        5.3742284220294447        5.5857031310908489      H 
