 # 17 angstroem -22827.2733501457
 lattice_vector   2.8258177289732354        0.0000000000000000        0.0000000000000000     
 lattice_vector  -1.2773363209313765E-002   2.7775819184385684        0.0000000000000000     
 lattice_vector  -3.5328940587499219E-002   1.3865537351783355        5.4381470221404085     
 atom   2.4543885579645490        1.9989426443674045        1.8424249997298128      C 
 atom   1.9404713070150374        2.1440319432450448        4.2417813554667898      H 
 atom   2.3228147363246112       0.97311093179136554        1.8563393012792566      H 
 atom   2.6501747785110981        2.1658623328596249        4.0657421577080619      H 
 atom   2.3297026313538214       0.81157470706710155       0.33014957069642070      H 
 atom  0.88900623660920886       0.75476883479737689        8.4157011279866550E-002 S 
 atom  0.92799615040224037       0.66848177666064901        2.2730140178196083      H 
 atom   2.0715968640880145        2.3828873298466342       0.96247627470806318      H 
 atom  0.90118896818255589        3.5309912831038401        3.6026928860413494      S 
 atom   1.0495055498556334       0.69738290322131491        1.4097479240873665      H 
 atom   2.0757272507319442        2.4076343817036956        2.7136169844453488      H 
 atom   1.9184435013727472        3.5272257194829550        5.0046169368240880      H 
 atom  0.65625121146388832        2.1521041321503720        1.8414646363621083      H 
 atom   2.3080209831815317        3.5998691469030715        3.3667565424567427      H 
 atom  0.83326948759431418        2.1314925298028711       0.42537146774017354      H 
 atom   2.6477938172018822        3.5530325513333185        4.9258309271387022      H 
 atom  0.87975906122111813        2.1248156666289328        3.2637355365541425      H 
