 # 51 angstroem -120469.09196576
 lattice_vector   6.3952652317934868        0.0000000000000000        0.0000000000000000     
 lattice_vector  0.67460376500568087        5.0404108240040211        0.0000000000000000     
 lattice_vector  0.67097595787422326       -1.8561383903942954        4.6971501084819343     
 atom   6.1666085821490455      -0.19866999144248426        3.1760431281668802      H 
 atom   1.5943214481361896        2.0106949388332045        4.7051577781037750      H 
 atom   3.4872757245549626        1.8778983398889781        4.3196323887197021      H 
 atom   4.1608769516821136        1.8220800536430077        2.3485936395936955      H 
 atom   5.1702391273877453        2.5346700095707986        1.5431755480036164      H 
 atom   3.1048862676952607        1.1496662573859231        3.1154308930248806      H 
 atom  0.84433690875990963       -1.0347559239066357        3.2964481598131732      H 
 atom   6.0663154597178748        4.3066297499766115       0.32387876016445988      H 
 atom   3.8385722319866660      -0.68129365822610344        2.3349645056669930      H 
 atom   4.9705789224120460      -0.83920452571741511        3.6800979104487697      H 
 atom   3.1637972431329757      -0.61266278856083722        4.2860536571483419      H 
 atom   4.1932803458650421       -1.6025025415474137        4.6827416482018451      H 
 atom   2.1176194319881785       0.36971266505177375        3.9248757781549837      H 
 atom   6.5359749530164164        2.5917811397727011        3.3398872682572263      H 
 atom   3.5062910706301511        3.6257380321396222        3.1299608456071839      H 
 atom   3.1730826980449409        4.5228226106390261       0.77247114627791669      H 
 atom   1.0883777188643802        1.3974503941016683        3.5182985550343222      H 
 atom   4.8265336141985591        1.8199956195245579       0.39070871401678070      H 
 atom   2.5682570616789540        2.8660700499147422        3.8828555599737671      H 
 atom   3.1053905958157748        2.7905792893818311        1.9994277271266778      H 
 atom   4.9352417362930012        4.2078746495582138       0.42052214983224750      H 
 atom   5.5472248748510280        1.6294350536463851        3.8882367735839445      H 
 atom   4.8435647461400810        2.6142047521875343E-002   1.5017654407102110      H 
 atom  0.43595698819365941      -0.23464098087537685        1.1083667726125106      H 
 atom   1.8067366676743848        1.2927096356437791        1.5761167425642992      H 
 atom   3.8416161302894025        2.7668618161478422        4.1946893650273586E-004 H 
 atom   2.1277848489801414        3.8338849880665253        1.5517069342394203      H 
 atom   2.8575114685020857       0.32620278045182066        1.9149673015851041      H 
 atom   5.1702334190812911       0.79103400894947906        2.7127025172472523      H 
 atom   5.5086923594766510        3.3119961248975041        2.6942994203097705      H 
 atom   5.6843220061753197       -1.0787500236373477        4.5087224325521085      H 
 atom   6.1819253790327462        3.1931620648938508       0.82748312055479001      H 
 atom  0.78132345759295241       0.51746312324742949        2.3265554569389804      H 
 atom  0.76819671669202105       -1.7013241409288058        4.2165657842416469      H 
 atom   1.1113376696326069        3.0627254727299249        2.3403140443324912      H 
 atom   1.0999821321079806      -0.38537477866130448        4.6734308015753427      H 
 atom   1.8445700932167974      -0.40422449547525363        2.7151767792431341      S 
 atom   4.1363442285908363        3.5199265911929825        1.2083045711539977      S 
 atom   3.8464522277486819        1.0212033444032362        1.1600769405416582      S 
 atom   1.8286597632230623        2.9953191465507496       0.40263771150511635      S 
 atom   2.0991157730046774        2.0932395214391311        2.7353276868607392      S 
 atom   6.1910581156268369        1.5656728021977013        1.9803762904653921      S 
 atom   6.5222425718640444        4.0739318315716933        1.9566203067516368      S 
 atom   1.4946150276552299       0.49892576043930914       0.39090929820991860      S 
 atom   4.5108707310661549        2.6133154449523519        3.5141353122354810      S 
 atom   4.1275674915291054       0.15324415145469231        3.5085243728740187      S 
 atom   6.5218656669897666       0.62105187985638788        4.2802510931994160      S 
 atom   6.8314156892060662        3.0913938691235332        4.2098086240351655      C 
 atom   5.9193406698107891       0.83500867008609492       0.92029889456433911      H 
 atom  0.79229193269957010        2.2598001569952286        1.1344728022204102      H 
 atom   2.8536817883111585        1.9950698386069619       0.79792173781424425      H 
